!-Generator IDFEditor 1.54
!-Option SortedOrder

!-NOTE: All comments with '!-' are ignored by the IDFEditor and are generated automatically.
!-      Use '!' comments if they need to be retained when using the IDFEditor.


!-   ===========  ALL OBJECTS IN CLASS: VERSION ===========

Version,
    25.1;                    !- Version Identifier


!-   ===========  ALL OBJECTS IN CLASS: SIMULATIONCONTROL ===========

SimulationControl,
    No,                      !- Do Zone Sizing Calculation
    No,                      !- Do System Sizing Calculation
    No,                      !- Do Plant Sizing Calculation
    No,                      !- Run Simulation for Sizing Periods
    Yes,                     !- Run Simulation for Weather File Run Periods
    No,                      !- Do HVAC Sizing Simulation for Sizing Periods
    1;                       !- Maximum Number of HVAC Sizing Simulation Passes


!-   ===========  ALL OBJECTS IN CLASS: BUILDING ===========

Building,
    Building 1,              !- Name
    @orientation@,           !- North Axis {deg}
    Country,                 !- Terrain
    0.04,                    !- Loads Convergence Tolerance Value {W}
    0.4,                     !- Temperature Convergence Tolerance Value {deltaC}
    FullInteriorAndExterior, !- Solar Distribution
    ,                        !- Maximum Number of Warmup Days
    6;                       !- Minimum Number of Warmup Days


!-   ===========  ALL OBJECTS IN CLASS: TIMESTEP ===========

Timestep,
    4;                       !- Number of Timesteps per Hour


!-   ===========  ALL OBJECTS IN CLASS: SITE:LOCATION ===========

Site:Location,
    London.Wea.Ctr-St.James.Park_ENG_GBR Design_Conditions,  !- Name
    51.50,                   !- Latitude {deg}
    -0.13,                   !- Longitude {deg}
    0.00,                    !- Time Zone {hr}
    5.00;                    !- Elevation {m}


!-   ===========  ALL OBJECTS IN CLASS: SIZINGPERIOD:DESIGNDAY ===========

SizingPeriod:DesignDay,
    London.Wea.Ctr-St.James.Park Ann Htg 99.6% Condns DB,  !- Name
    1,                       !- Month
    21,                      !- Day of Month
    WinterDesignDay,         !- Day Type
    -1.5,                    !- Maximum Dry-Bulb Temperature {C}
    0.0,                     !- Daily Dry-Bulb Temperature Range {deltaC}
    DefaultMultipliers,      !- Dry-Bulb Temperature Range Modifier Type
    ,                        !- Dry-Bulb Temperature Range Modifier Day Schedule Name
    Wetbulb,                 !- Humidity Condition Type
    -1.5,                    !- Wetbulb or DewPoint at Maximum Dry-Bulb {C}
    ,                        !- Humidity Condition Day Schedule Name
    ,                        !- Humidity Ratio at Maximum Dry-Bulb {kgWater/kgDryAir}
    ,                        !- Enthalpy at Maximum Dry-Bulb {J/kg}
    ,                        !- Daily Wet-Bulb Temperature Range {deltaC}
    101265.,                 !- Barometric Pressure {Pa}
    6.71,                    !- Wind Speed {m/s}
    0,                       !- Wind Direction {deg}
    No,                      !- Rain Indicator
    No,                      !- Snow Indicator
    No,                      !- Daylight Saving Time Indicator
    ASHRAEClearSky,          !- Solar Model Indicator
    ,                        !- Beam Solar Day Schedule Name
    ,                        !- Diffuse Solar Day Schedule Name
    ,                        !- ASHRAE Clear Sky Optical Depth for Beam Irradiance (taub) {dimensionless}
    ,                        !- ASHRAE Clear Sky Optical Depth for Diffuse Irradiance (taud) {dimensionless}
    0.00;                    !- Sky Clearness

SizingPeriod:DesignDay,
    London.Wea.Ctr-St.James.Park Ann Clg .4% Condns DB=>MWB,  !- Name
    7,                       !- Month
    21,                      !- Day of Month
    SummerDesignDay,         !- Day Type
    28.5,                    !- Maximum Dry-Bulb Temperature {C}
    11.8,                    !- Daily Dry-Bulb Temperature Range {deltaC}
    DefaultMultipliers,      !- Dry-Bulb Temperature Range Modifier Type
    ,                        !- Dry-Bulb Temperature Range Modifier Day Schedule Name
    Wetbulb,                 !- Humidity Condition Type
    18.7,                    !- Wetbulb or DewPoint at Maximum Dry-Bulb {C}
    ,                        !- Humidity Condition Day Schedule Name
    ,                        !- Humidity Ratio at Maximum Dry-Bulb {kgWater/kgDryAir}
    ,                        !- Enthalpy at Maximum Dry-Bulb {J/kg}
    4.6,                     !- Daily Wet-Bulb Temperature Range {deltaC}
    101265.,                 !- Barometric Pressure {Pa}
    3.35,                    !- Wind Speed {m/s}
    0,                       !- Wind Direction {deg}
    No,                      !- Rain Indicator
    No,                      !- Snow Indicator
    No,                      !- Daylight Saving Time Indicator
    ASHRAETau2017,           !- Solar Model Indicator
    ,                        !- Beam Solar Day Schedule Name
    ,                        !- Diffuse Solar Day Schedule Name
    0.408,                   !- ASHRAE Clear Sky Optical Depth for Beam Irradiance (taub) {dimensionless}
    2.292;                   !- ASHRAE Clear Sky Optical Depth for Diffuse Irradiance (taud) {dimensionless}


!-   ===========  ALL OBJECTS IN CLASS: RUNPERIOD ===========

RunPeriod,
    Run Period 1,            !- Name
    1,                       !- Begin Month
    1,                       !- Begin Day of Month
    2025,                    !- Begin Year
    12,                      !- End Month
    31,                      !- End Day of Month
    2025,                    !- End Year
    ,                        !- Day of Week for Start Day
    No,                      !- Use Weather File Holidays and Special Days
    No,                      !- Use Weather File Daylight Saving Period
    No,                      !- Apply Weekend Holiday Rule
    No,                      !- Use Weather File Rain Indicators
    No,                      !- Use Weather File Snow Indicators
    No,                      !- Treat Weather as Actual
    Hour24;                  !- First Hour Interpolation Starting Values


!-   ===========  ALL OBJECTS IN CLASS: SHADOWCALCULATION ===========

ShadowCalculation,
    PolygonClipping,         !- Shading Calculation Method
    Periodic,                !- Shading Calculation Update Frequency Method
    20;                      !- Shading Calculation Update Frequency


!-   ===========  ALL OBJECTS IN CLASS: SURFACECONVECTIONALGORITHM:INSIDE ===========

SurfaceConvectionAlgorithm:Inside,
    TARP;                    !- Algorithm


!-   ===========  ALL OBJECTS IN CLASS: SURFACECONVECTIONALGORITHM:OUTSIDE ===========

SurfaceConvectionAlgorithm:Outside,
    TARP;                    !- Algorithm


!-   ===========  ALL OBJECTS IN CLASS: HEATBALANCEALGORITHM ===========

HeatBalanceAlgorithm,
    ConductionTransferFunction;  !- Algorithm


!-   ===========  ALL OBJECTS IN CLASS: SCHEDULETYPELIMITS ===========

ScheduleTypeLimits,
    Fraction,                !- Name
    0,                       !- Lower Limit Value
    1,                       !- Upper Limit Value
    CONTINUOUS;              !- Numeric Type

ScheduleTypeLimits,
    ActivityLevel,           !- Name
    0,                       !- Lower Limit Value
    ,                        !- Upper Limit Value
    Continuous,              !- Numeric Type
    activitylevel;           !- Unit Type

ScheduleTypeLimits,
    ActivityLevel 12,        !- Name
    0,                       !- Lower Limit Value
    ,                        !- Upper Limit Value
    Continuous,              !- Numeric Type
    activitylevel;           !- Unit Type

ScheduleTypeLimits,
    ActivityLevel 13,        !- Name
    0,                       !- Lower Limit Value
    ,                        !- Upper Limit Value
    Continuous,              !- Numeric Type
    activitylevel;           !- Unit Type

ScheduleTypeLimits,
    ActivityLevel 5,         !- Name
    0,                       !- Lower Limit Value
    ,                        !- Upper Limit Value
    Continuous,              !- Numeric Type
    activitylevel;           !- Unit Type

ScheduleTypeLimits,
    Always On Discrete Limits,  !- Name
    0,                       !- Lower Limit Value
    1,                       !- Upper Limit Value
    Discrete,                !- Numeric Type
    availability;            !- Unit Type

ScheduleTypeLimits,
    Fractional,              !- Name
    0,                       !- Lower Limit Value
    1,                       !- Upper Limit Value
    Continuous;              !- Numeric Type

ScheduleTypeLimits,
    Fractional 1,            !- Name
    0,                       !- Lower Limit Value
    1,                       !- Upper Limit Value
    Continuous;              !- Numeric Type

ScheduleTypeLimits,
    OnOff,                   !- Name
    0,                       !- Lower Limit Value
    1,                       !- Upper Limit Value
    Discrete,                !- Numeric Type
    availability;            !- Unit Type

ScheduleTypeLimits,
    Temperature 11,          !- Name
    ,                        !- Lower Limit Value
    ,                        !- Upper Limit Value
    Continuous,              !- Numeric Type
    temperature;             !- Unit Type

ScheduleTypeLimits,
    Temperature 3,           !- Name
    ,                        !- Lower Limit Value
    ,                        !- Upper Limit Value
    Continuous,              !- Numeric Type
    temperature;             !- Unit Type

ScheduleTypeLimits,
    Temperature 36,          !- Name
    ,                        !- Lower Limit Value
    ,                        !- Upper Limit Value
    Continuous,              !- Numeric Type
    temperature;             !- Unit Type

ScheduleTypeLimits,
    Temperature 37,          !- Name
    ,                        !- Lower Limit Value
    ,                        !- Upper Limit Value
    Continuous,              !- Numeric Type
    temperature;             !- Unit Type

ScheduleTypeLimits,
    Temperature 4,           !- Name
    ,                        !- Lower Limit Value
    ,                        !- Upper Limit Value
    Continuous,              !- Numeric Type
    temperature;             !- Unit Type

ScheduleTypeLimits,
    Temperature 5,           !- Name
    ,                        !- Lower Limit Value
    ,                        !- Upper Limit Value
    Continuous,              !- Numeric Type
    temperature;             !- Unit Type


!-   ===========  NECB RESIDENTIAL SCHEDULES ===========

ScheduleTypeLimits,
    Velocity,                !- Name
    0,                       !- Lower Limit Value
    ,                        !- Upper Limit Value
    Continuous,              !- Numeric Type
    velocity;                !- Unit Type

Schedule:Day:Interval,
    NECB-G-Lighting Sun|Hol Day,  !- Name
    Fractional,              !- Schedule Type Limits Name
    No,                      !- Interpolate to Timestep
    01:00,                   !- Time 1 {hh:mm}
    0.3,                     !- Value Until Time 1
    06:00,                   !- Time 2 {hh:mm}
    0,                       !- Value Until Time 2
    07:00,                   !- Time 3 {hh:mm}
    0.2,                     !- Value Until Time 3
    09:00,                   !- Time 4 {hh:mm}
    0.5,                     !- Value Until Time 4
    19:00,                   !- Time 5 {hh:mm}
    0,                       !- Value Until Time 5
    22:00,                   !- Time 6 {hh:mm}
    0.9,                     !- Value Until Time 6
    23:00,                   !- Time 7 {hh:mm}
    0.8,                     !- Value Until Time 7
    24:00,                   !- Time 8 {hh:mm}
    0.6;                     !- Value Until Time 8

Schedule:Day:Interval,
    NECB-G-Lighting Default|Wkdy Day,  !- Name
    Fractional,              !- Schedule Type Limits Name
    No,                      !- Interpolate to Timestep
    01:00,                   !- Time 1 {hh:mm}
    0.3,                     !- Value Until Time 1
    06:00,                   !- Time 2 {hh:mm}
    0,                       !- Value Until Time 2
    07:00,                   !- Time 3 {hh:mm}
    0.2,                     !- Value Until Time 3
    09:00,                   !- Time 4 {hh:mm}
    0.5,                     !- Value Until Time 4
    19:00,                   !- Time 5 {hh:mm}
    0,                       !- Value Until Time 5
    22:00,                   !- Time 6 {hh:mm}
    0.9,                     !- Value Until Time 6
    23:00,                   !- Time 7 {hh:mm}
    0.8,                     !- Value Until Time 7
    24:00,                   !- Time 8 {hh:mm}
    0.6;                     !- Value Until Time 8

Schedule:Day:Interval,
    NECB-G-Lighting Sat Day, !- Name
    Fractional,              !- Schedule Type Limits Name
    No,                      !- Interpolate to Timestep
    01:00,                   !- Time 1 {hh:mm}
    0.3,                     !- Value Until Time 1
    06:00,                   !- Time 2 {hh:mm}
    0,                       !- Value Until Time 2
    07:00,                   !- Time 3 {hh:mm}
    0.2,                     !- Value Until Time 3
    09:00,                   !- Time 4 {hh:mm}
    0.5,                     !- Value Until Time 4
    19:00,                   !- Time 5 {hh:mm}
    0,                       !- Value Until Time 5
    22:00,                   !- Time 6 {hh:mm}
    0.9,                     !- Value Until Time 6
    23:00,                   !- Time 7 {hh:mm}
    0.8,                     !- Value Until Time 7
    24:00,                   !- Time 8 {hh:mm}
    0.6;                     !- Value Until Time 8

Schedule:Day:Interval,
    NECB-G-Occupancy Sun|Hol Day,  !- Name
    Fractional,              !- Schedule Type Limits Name
    No,                      !- Interpolate to Timestep
    07:00,                   !- Time 1 {hh:mm}
    0.9,                     !- Value Until Time 1
    08:00,                   !- Time 2 {hh:mm}
    0.7,                     !- Value Until Time 2
    17:00,                   !- Time 3 {hh:mm}
    0.5,                     !- Value Until Time 3
    18:00,                   !- Time 4 {hh:mm}
    0.7,                     !- Value Until Time 4
    24:00,                   !- Time 5 {hh:mm}
    0.9;                     !- Value Until Time 5

Schedule:Day:Interval,
    NECB-G-Occupancy Default|Wkdy Day,  !- Name
    Fractional,              !- Schedule Type Limits Name
    No,                      !- Interpolate to Timestep
    07:00,                   !- Time 1 {hh:mm}
    0.9,                     !- Value Until Time 1
    08:00,                   !- Time 2 {hh:mm}
    0.7,                     !- Value Until Time 2
    09:00,                   !- Time 3 {hh:mm}
    0.4,                     !- Value Until Time 3
    17:00,                   !- Time 4 {hh:mm}
    0.3,                     !- Value Until Time 4
    18:00,                   !- Time 5 {hh:mm}
    0.5,                     !- Value Until Time 5
    24:00,                   !- Time 6 {hh:mm}
    0.9;                     !- Value Until Time 6

Schedule:Day:Interval,
    NECB-G-Occupancy Sat Day,!- Name
    Fractional,              !- Schedule Type Limits Name
    No,                      !- Interpolate to Timestep
    07:00,                   !- Time 1 {hh:mm}
    0.9,                     !- Value Until Time 1
    08:00,                   !- Time 2 {hh:mm}
    0.7,                     !- Value Until Time 2
    17:00,                   !- Time 3 {hh:mm}
    0.5,                     !- Value Until Time 3
    18:00,                   !- Time 4 {hh:mm}
    0.7,                     !- Value Until Time 4
    24:00,                   !- Time 5 {hh:mm}
    0.9;                     !- Value Until Time 5

Schedule:Day:Interval,
    NECB-G-Electric-Equipment Sun|Hol Day,  !- Name
    Fractional,              !- Schedule Type Limits Name
    No,                      !- Interpolate to Timestep
    01:00,                   !- Time 1 {hh:mm}
    0.3,                     !- Value Until Time 1
    07:00,                   !- Time 2 {hh:mm}
    0.2,                     !- Value Until Time 2
    09:00,                   !- Time 3 {hh:mm}
    0.8,                     !- Value Until Time 3
    16:00,                   !- Time 4 {hh:mm}
    0.4,                     !- Value Until Time 4
    17:00,                   !- Time 5 {hh:mm}
    0.5,                     !- Value Until Time 5
    18:00,                   !- Time 6 {hh:mm}
    0.2,                     !- Value Until Time 6
    20:00,                   !- Time 7 {hh:mm}
    0.9,                     !- Value Until Time 7
    21:00,                   !- Time 8 {hh:mm}
    0.7,                     !- Value Until Time 8
    24:00,                   !- Time 9 {hh:mm}
    0.5;                     !- Value Until Time 9

Schedule:Day:Interval,
    NECB-G-Electric-Equipment Default|Wkdy Day,  !- Name
    Fractional,              !- Schedule Type Limits Name
    No,                      !- Interpolate to Timestep
    01:00,                   !- Time 1 {hh:mm}
    0.3,                     !- Value Until Time 1
    07:00,                   !- Time 2 {hh:mm}
    0.2,                     !- Value Until Time 2
    09:00,                   !- Time 3 {hh:mm}
    0.8,                     !- Value Until Time 3
    16:00,                   !- Time 4 {hh:mm}
    0.4,                     !- Value Until Time 4
    17:00,                   !- Time 5 {hh:mm}
    0.5,                     !- Value Until Time 5
    18:00,                   !- Time 6 {hh:mm}
    0.2,                     !- Value Until Time 6
    20:00,                   !- Time 7 {hh:mm}
    0.9,                     !- Value Until Time 7
    21:00,                   !- Time 8 {hh:mm}
    0.7,                     !- Value Until Time 8
    24:00,                   !- Time 9 {hh:mm}
    0.5;                     !- Value Until Time 9

Schedule:Day:Interval,
    NECB-G-Electric-Equipment Sat Day,  !- Name
    Fractional,              !- Schedule Type Limits Name
    No,                      !- Interpolate to Timestep
    01:00,                   !- Time 1 {hh:mm}
    0.3,                     !- Value Until Time 1
    07:00,                   !- Time 2 {hh:mm}
    0.2,                     !- Value Until Time 2
    09:00,                   !- Time 3 {hh:mm}
    0.8,                     !- Value Until Time 3
    16:00,                   !- Time 4 {hh:mm}
    0.4,                     !- Value Until Time 4
    17:00,                   !- Time 5 {hh:mm}
    0.5,                     !- Value Until Time 5
    18:00,                   !- Time 6 {hh:mm}
    0.2,                     !- Value Until Time 6
    20:00,                   !- Time 7 {hh:mm}
    0.9,                     !- Value Until Time 7
    21:00,                   !- Time 8 {hh:mm}
    0.7,                     !- Value Until Time 8
    24:00,                   !- Time 9 {hh:mm}
    0.5;                     !- Value Until Time 9

Schedule:Day:Interval,
    NECB-Activity Default,   !- Name
    ActivityLevel,           !- Schedule Type Limits Name
    No,                      !- Interpolate to Timestep
    07:00,                   !- Time 1 {hh:mm}
    73.2,                    !- Value Until Time 1
    23:00,                   !- Time 2 {hh:mm}
    105,                     !- Value Until Time 2
    24:00,                   !- Time 3 {hh:mm}
    73.2;                    !- Value Until Time 3

Schedule:Day:Interval,
    Work Efficiency Schedule Default,  !- Name
    Fractional,              !- Schedule Type Limits Name
    No,                      !- Interpolate to Timestep
    24:00,                   !- Time 1 {hh:mm}
    0;                       !- Value Until Time 1

Schedule:Day:Interval,
    Clothing Schedule Default Winter Clothes,  !- Name
    Any Number,              !- Schedule Type Limits Name
    No,                      !- Interpolate to Timestep
    7:00,                    !- Time 1 {hh:mm}
    1.38,                    !- Value Until Time 1
    23:00,                   !- Time 2 {hh:mm}
    1,                       !- Value Until Time 2
    24:00,                   !- Time 3 {hh:mm}
    1.38;                    !- Value Until Time 3

Schedule:Day:Interval,
    Clothing Schedule Summer Clothes,  !- Name
    Any Number,              !- Schedule Type Limits Name
    No,                      !- Interpolate to Timestep
    7:00,                    !- Time 1 {hh:mm}
    1.38,                    !- Value Until Time 1
    23:00,                   !- Time 2 {hh:mm}
    0.5,                     !- Value Until Time 2
    24:00,                   !- Time 3 {hh:mm}
    1.38;                    !- Value Until Time 3

Schedule:Day:Interval,
    Air Velocity Schedule Default,  !- Name
    Velocity,                !- Schedule Type Limits Name
    No,                      !- Interpolate to Timestep
    24:00,                   !- Time 1 {hh:mm}
    0.2;                     !- Value Until Time 1

Schedule:Week:Daily,
    NECB-G-Lighting Week Rule - Jan1-Dec31,  !- Name
    NECB-G-Lighting Sun|Hol Day,  !- Sunday Schedule:Day Name
    NECB-G-Lighting Default|Wkdy Day,  !- Monday Schedule:Day Name
    NECB-G-Lighting Default|Wkdy Day,  !- Tuesday Schedule:Day Name
    NECB-G-Lighting Default|Wkdy Day,  !- Wednesday Schedule:Day Name
    NECB-G-Lighting Default|Wkdy Day,  !- Thursday Schedule:Day Name
    NECB-G-Lighting Default|Wkdy Day,  !- Friday Schedule:Day Name
    NECB-G-Lighting Sat Day, !- Saturday Schedule:Day Name
    NECB-G-Lighting Sun|Hol Day,  !- Holiday Schedule:Day Name
    NECB-G-Lighting Default|Wkdy Day,  !- SummerDesignDay Schedule:Day Name
    NECB-G-Lighting Default|Wkdy Day,  !- WinterDesignDay Schedule:Day Name
    NECB-G-Lighting Default|Wkdy Day,  !- CustomDay1 Schedule:Day Name
    NECB-G-Lighting Default|Wkdy Day;  !- CustomDay2 Schedule:Day Name

Schedule:Week:Daily,
    NECB-G-Occupancy Week Rule - Jan1-Dec31,  !- Name
    NECB-G-Occupancy Sun|Hol Day,  !- Sunday Schedule:Day Name
    NECB-G-Occupancy Default|Wkdy Day,  !- Monday Schedule:Day Name
    NECB-G-Occupancy Default|Wkdy Day,  !- Tuesday Schedule:Day Name
    NECB-G-Occupancy Default|Wkdy Day,  !- Wednesday Schedule:Day Name
    NECB-G-Occupancy Default|Wkdy Day,  !- Thursday Schedule:Day Name
    NECB-G-Occupancy Default|Wkdy Day,  !- Friday Schedule:Day Name
    NECB-G-Occupancy Sat Day,!- Saturday Schedule:Day Name
    NECB-G-Occupancy Sun|Hol Day,  !- Holiday Schedule:Day Name
    NECB-G-Occupancy Default|Wkdy Day,  !- SummerDesignDay Schedule:Day Name
    NECB-G-Occupancy Default|Wkdy Day,  !- WinterDesignDay Schedule:Day Name
    NECB-G-Occupancy Default|Wkdy Day,  !- CustomDay1 Schedule:Day Name
    NECB-G-Occupancy Default|Wkdy Day;  !- CustomDay2 Schedule:Day Name

Schedule:Week:Daily,
    NECB-G-Electric-Equipment Week Rule - Jan1-Dec31,  !- Name
    NECB-G-Electric-Equipment Sun|Hol Day,  !- Sunday Schedule:Day Name
    NECB-G-Electric-Equipment Default|Wkdy Day,  !- Monday Schedule:Day Name
    NECB-G-Electric-Equipment Default|Wkdy Day,  !- Tuesday Schedule:Day Name
    NECB-G-Electric-Equipment Default|Wkdy Day,  !- Wednesday Schedule:Day Name
    NECB-G-Electric-Equipment Default|Wkdy Day,  !- Thursday Schedule:Day Name
    NECB-G-Electric-Equipment Default|Wkdy Day,  !- Friday Schedule:Day Name
    NECB-G-Electric-Equipment Sat Day,  !- Saturday Schedule:Day Name
    NECB-G-Electric-Equipment Sun|Hol Day,  !- Holiday Schedule:Day Name
    NECB-G-Electric-Equipment Default|Wkdy Day,  !- SummerDesignDay Schedule:Day Name
    NECB-G-Electric-Equipment Default|Wkdy Day,  !- WinterDesignDay Schedule:Day Name
    NECB-G-Electric-Equipment Default|Wkdy Day,  !- CustomDay1 Schedule:Day Name
    NECB-G-Electric-Equipment Default|Wkdy Day;  !- CustomDay2 Schedule:Day Name

Schedule:Week:Daily,
    NECB-Activity Week Rule - Jan1-Dec31,  !- Name
    NECB-Activity Default,   !- Sunday Schedule:Day Name
    NECB-Activity Default,   !- Monday Schedule:Day Name
    NECB-Activity Default,   !- Tuesday Schedule:Day Name
    NECB-Activity Default,   !- Wednesday Schedule:Day Name
    NECB-Activity Default,   !- Thursday Schedule:Day Name
    NECB-Activity Default,   !- Friday Schedule:Day Name
    NECB-Activity Default,   !- Saturday Schedule:Day Name
    NECB-Activity Default,   !- Holiday Schedule:Day Name
    NECB-Activity Default,   !- SummerDesignDay Schedule:Day Name
    NECB-Activity Default,   !- WinterDesignDay Schedule:Day Name
    NECB-Activity Default,   !- CustomDay1 Schedule:Day Name
    NECB-Activity Default;   !- CustomDay2 Schedule:Day Name

Schedule:Week:Daily,
    Work Efficiency Schedule Week Rule - Jan1-Dec31,  !- Name
    Work Efficiency Schedule Default,  !- Sunday Schedule:Day Name
    Work Efficiency Schedule Default,  !- Monday Schedule:Day Name
    Work Efficiency Schedule Default,  !- Tuesday Schedule:Day Name
    Work Efficiency Schedule Default,  !- Wednesday Schedule:Day Name
    Work Efficiency Schedule Default,  !- Thursday Schedule:Day Name
    Work Efficiency Schedule Default,  !- Friday Schedule:Day Name
    Work Efficiency Schedule Default,  !- Saturday Schedule:Day Name
    Work Efficiency Schedule Default,  !- Holiday Schedule:Day Name
    Work Efficiency Schedule Default,  !- SummerDesignDay Schedule:Day Name
    Work Efficiency Schedule Default,  !- WinterDesignDay Schedule:Day Name
    Work Efficiency Schedule Default,  !- CustomDay1 Schedule:Day Name
    Work Efficiency Schedule Default;  !- CustomDay2 Schedule:Day Name

Schedule:Week:Daily,
    Summer Clothing Schedule Week Rule - Jan1-Dec31,  !- Name
    Clothing Schedule Summer Clothes,  !- Sunday Schedule:Day Name
    Clothing Schedule Summer Clothes,  !- Monday Schedule:Day Name
    Clothing Schedule Summer Clothes,  !- Tuesday Schedule:Day Name
    Clothing Schedule Summer Clothes,  !- Wednesday Schedule:Day Name
    Clothing Schedule Summer Clothes,  !- Thursday Schedule:Day Name
    Clothing Schedule Summer Clothes,  !- Friday Schedule:Day Name
    Clothing Schedule Summer Clothes,  !- Saturday Schedule:Day Name
    Clothing Schedule Summer Clothes,  !- Holiday Schedule:Day Name
    Clothing Schedule Summer Clothes,  !- SummerDesignDay Schedule:Day Name
    Clothing Schedule Summer Clothes,  !- WinterDesignDay Schedule:Day Name
    Clothing Schedule Summer Clothes,  !- CustomDay1 Schedule:Day Name
    Clothing Schedule Summer Clothes;  !- CustomDay2 Schedule:Day Name

Schedule:Week:Daily,
    Winter Clothing Schedule Week Rule - Jan1-Dec31,  !- Name
    Clothing Schedule Default Winter Clothes,  !- Sunday Schedule:Day Name
    Clothing Schedule Default Winter Clothes,  !- Monday Schedule:Day Name
    Clothing Schedule Default Winter Clothes,  !- Tuesday Schedule:Day Name
    Clothing Schedule Default Winter Clothes,  !- Wednesday Schedule:Day Name
    Clothing Schedule Default Winter Clothes,  !- Thursday Schedule:Day Name
    Clothing Schedule Default Winter Clothes,  !- Friday Schedule:Day Name
    Clothing Schedule Default Winter Clothes,  !- Saturday Schedule:Day Name
    Clothing Schedule Default Winter Clothes,  !- Holiday Schedule:Day Name
    Clothing Schedule Default Winter Clothes,  !- SummerDesignDay Schedule:Day Name
    Clothing Schedule Default Winter Clothes,  !- WinterDesignDay Schedule:Day Name
    Clothing Schedule Default Winter Clothes,  !- CustomDay1 Schedule:Day Name
    Clothing Schedule Default Winter Clothes;  !- CustomDay2 Schedule:Day Name

Schedule:Week:Daily,
    Air Velocity Schedule Week Rule - Jan1-Dec31,  !- Name
    Air Velocity Schedule Default,  !- Sunday Schedule:Day Name
    Air Velocity Schedule Default,  !- Monday Schedule:Day Name
    Air Velocity Schedule Default,  !- Tuesday Schedule:Day Name
    Air Velocity Schedule Default,  !- Wednesday Schedule:Day Name
    Air Velocity Schedule Default,  !- Thursday Schedule:Day Name
    Air Velocity Schedule Default,  !- Friday Schedule:Day Name
    Air Velocity Schedule Default,  !- Saturday Schedule:Day Name
    Air Velocity Schedule Default,  !- Holiday Schedule:Day Name
    Air Velocity Schedule Default,  !- SummerDesignDay Schedule:Day Name
    Air Velocity Schedule Default,  !- WinterDesignDay Schedule:Day Name
    Air Velocity Schedule Default,  !- CustomDay1 Schedule:Day Name
    Air Velocity Schedule Default;  !- CustomDay2 Schedule:Day Name

Schedule:Year,
    NECB-G-Lighting,         !- Name
    Fractional,              !- Schedule Type Limits Name
    NECB-G-Lighting Week Rule - Jan1-Dec31,  !- Schedule:Week Name 1
    1,                       !- Start Month 1
    1,                       !- Start Day 1
    12,                      !- End Month 1
    31;                      !- End Day 1

Schedule:Year,
    NECB-G-Occupancy,        !- Name
    Fractional,              !- Schedule Type Limits Name
    NECB-G-Occupancy Week Rule - Jan1-Dec31,  !- Schedule:Week Name 1
    1,                       !- Start Month 1
    1,                       !- Start Day 1
    12,                      !- End Month 1
    31;                      !- End Day 1

Schedule:Year,
    NECB-G-Electric-Equipment,  !- Name
    Fractional,              !- Schedule Type Limits Name
    NECB-G-Electric-Equipment Week Rule - Jan1-Dec31,  !- Schedule:Week Name 1
    1,                       !- Start Month 1
    1,                       !- Start Day 1
    12,                      !- End Month 1
    31;                      !- End Day 1

Schedule:Year,
    NECB-Activity,           !- Name
    ActivityLevel,           !- Schedule Type Limits Name
    NECB-Activity Week Rule - Jan1-Dec31,  !- Schedule:Week Name 1
    1,                       !- Start Month 1
    1,                       !- Start Day 1
    12,                      !- End Month 1
    31;                      !- End Day 1

Schedule:Year,
    Work Efficiency Schedule,!- Name
    Fractional,              !- Schedule Type Limits Name
    Work Efficiency Schedule Week Rule - Jan1-Dec31,  !- Schedule:Week Name 1
    1,                       !- Start Month 1
    1,                       !- Start Day 1
    12,                      !- End Month 1
    31;                      !- End Day 1

Schedule:Year,
    Clothing Schedule,       !- Name
    Any Number,              !- Schedule Type Limits Name
    Winter Clothing Schedule Week Rule - Jan1-Dec31,  !- Schedule:Week Name 1
    1,                       !- Start Month 1
    1,                       !- Start Day 1
    4,                       !- End Month 1
    30,                      !- End Day 1
    Summer Clothing Schedule Week Rule - Jan1-Dec31,  !- Schedule:Week Name 2
    5,                       !- Start Month 2
    1,                       !- Start Day 2
    9,                       !- End Month 2
    30,                      !- End Day 2
    Winter Clothing Schedule Week Rule - Jan1-Dec31,  !- Schedule:Week Name 3
    10,                      !- Start Month 3
    1,                       !- Start Day 3
    12,                      !- End Month 3
    31;                      !- End Day 3

Schedule:Year,
    Air Velocity Schedule,   !- Name
    Velocity,                !- Schedule Type Limits Name
    Air Velocity Schedule Week Rule - Jan1-Dec31,  !- Schedule:Week Name 1
    1,                       !- Start Month 1
    1,                       !- Start Day 1
    12,                      !- End Month 1
    31;                      !- End Day 1

Schedule:Compact,
    Always On,               !- Name
    Any Number,              !- Schedule Type Limits Name
    Through: 12/31,          !- Field 1
    For: AllDays,            !- Field 2
    Until: 24:00,            !- Field 3
    1;                       !- Field 4

!-   ===========  ALL OBJECTS IN CLASS: SCHEDULE:DAY:INTERVAL ===========

Schedule:Day:Interval,
    Office Bldg Light Default Schedule,  !- Name
    Fraction,                !- Schedule Type Limits Name
    No,                      !- Interpolate to Timestep
    05:00,                   !- Time 1 {hh:mm}
    0.05,                    !- Value Until Time 1
    07:00,                   !- Time 2 {hh:mm}
    0.1,                     !- Value Until Time 2
    08:00,                   !- Time 3 {hh:mm}
    0.3,                     !- Value Until Time 3
    17:00,                   !- Time 4 {hh:mm}
    0.9,                     !- Value Until Time 4
    18:00,                   !- Time 5 {hh:mm}
    0.7,                     !- Value Until Time 5
    20:00,                   !- Time 6 {hh:mm}
    0.5,                     !- Value Until Time 6
    22:00,                   !- Time 7 {hh:mm}
    0.3,                     !- Value Until Time 7
    23:00,                   !- Time 8 {hh:mm}
    0.1,                     !- Value Until Time 8
    24:00,                   !- Time 9 {hh:mm}
    0.05;                    !- Value Until Time 9

Schedule:Day:Interval,
    Office Bldg Light Rule 2 Day Schedule,  !- Name
    Fraction,                !- Schedule Type Limits Name
    No,                      !- Interpolate to Timestep
    06:00,                   !- Time 1 {hh:mm}
    0.05,                    !- Value Until Time 1
    08:00,                   !- Time 2 {hh:mm}
    0.1,                     !- Value Until Time 2
    14:00,                   !- Time 3 {hh:mm}
    0.5,                     !- Value Until Time 3
    17:00,                   !- Time 4 {hh:mm}
    0.15,                    !- Value Until Time 4
    24:00,                   !- Time 5 {hh:mm}
    0.05;                    !- Value Until Time 5

Schedule:Day:Interval,
    Office Bldg Light Rule 1 Day Schedule,  !- Name
    Fraction,                !- Schedule Type Limits Name
    No,                      !- Interpolate to Timestep
    24:00,                   !- Time 1 {hh:mm}
    0.05;                    !- Value Until Time 1

Schedule:Day:Interval,
    Office Bldg Light Summer Design Day,  !- Name
    Fraction,                !- Schedule Type Limits Name
    No,                      !- Interpolate to Timestep
    24:00,                   !- Time 1 {hh:mm}
    1;                       !- Value Until Time 1

Schedule:Day:Interval,
    Office Bldg Light Winter Design Day,  !- Name
    Fraction,                !- Schedule Type Limits Name
    No,                      !- Interpolate to Timestep
    24:00,                   !- Time 1 {hh:mm}
    0;                       !- Value Until Time 1

Schedule:Day:Interval,
    Office Bldg Occ Default Schedule,  !- Name
    Fraction,                !- Schedule Type Limits Name
    No,                      !- Interpolate to Timestep
    06:00,                   !- Time 1 {hh:mm}
    0,                       !- Value Until Time 1
    07:00,                   !- Time 2 {hh:mm}
    0.100000001490116,       !- Value Until Time 2
    08:00,                   !- Time 3 {hh:mm}
    0.200000002980232,       !- Value Until Time 3
    12:00,                   !- Time 4 {hh:mm}
    0.850000023841858,       !- Value Until Time 4
    13:00,                   !- Time 5 {hh:mm}
    0.5,                     !- Value Until Time 5
    17:00,                   !- Time 6 {hh:mm}
    0.850000023841858,       !- Value Until Time 6
    18:00,                   !- Time 7 {hh:mm}
    0.699999988079071,       !- Value Until Time 7
    20:00,                   !- Time 8 {hh:mm}
    0.400000005960464,       !- Value Until Time 8
    22:00,                   !- Time 9 {hh:mm}
    0.100000001490116,       !- Value Until Time 9
    24:00,                   !- Time 10 {hh:mm}
    0.0500000007450581;      !- Value Until Time 10

Schedule:Day:Interval,
    Office Bldg Occ Rule 2 Day Schedule,  !- Name
    Fraction,                !- Schedule Type Limits Name
    No,                      !- Interpolate to Timestep
    06:00,                   !- Time 1 {hh:mm}
    0,                       !- Value Until Time 1
    08:00,                   !- Time 2 {hh:mm}
    0.100000001490116,       !- Value Until Time 2
    14:00,                   !- Time 3 {hh:mm}
    0.400000005960464,       !- Value Until Time 3
    17:00,                   !- Time 4 {hh:mm}
    0.100000001490116,       !- Value Until Time 4
    24:00,                   !- Time 5 {hh:mm}
    0;                       !- Value Until Time 5

Schedule:Day:Interval,
    Office Bldg Occ Rule 1 Day Schedule,  !- Name
    Fraction,                !- Schedule Type Limits Name
    No,                      !- Interpolate to Timestep
    24:00,                   !- Time 1 {hh:mm}
    0;                       !- Value Until Time 1

Schedule:Day:Interval,
    Office Bldg Occ Summer Design Day,  !- Name
    Fraction,                !- Schedule Type Limits Name
    No,                      !- Interpolate to Timestep
    06:00,                   !- Time 1 {hh:mm}
    0,                       !- Value Until Time 1
    22:00,                   !- Time 2 {hh:mm}
    1,                       !- Value Until Time 2
    24:00,                   !- Time 3 {hh:mm}
    0.05;                    !- Value Until Time 3

Schedule:Day:Interval,
    Office Bldg Occ Winter Design Day,  !- Name
    Fraction,                !- Schedule Type Limits Name
    No,                      !- Interpolate to Timestep
    24:00,                   !- Time 1 {hh:mm}
    0;                       !- Value Until Time 1

Schedule:Day:Interval,
    Office Activity Default Schedule,  !- Name
    ActivityLevel,           !- Schedule Type Limits Name
    No,                      !- Interpolate to Timestep
    24:00,                   !- Time 1 {hh:mm}
    132;                     !- Value Until Time 1

Schedule:Day:Interval,
    Office Activity Summer Design Day,  !- Name
    ActivityLevel,           !- Schedule Type Limits Name
    No,                      !- Interpolate to Timestep
    24:00,                   !- Time 1 {hh:mm}
    132;                     !- Value Until Time 1

Schedule:Day:Interval,
    Office Activity Winter Design Day,  !- Name
    ActivityLevel,           !- Schedule Type Limits Name
    No,                      !- Interpolate to Timestep
    24:00,                   !- Time 1 {hh:mm}
    132;                     !- Value Until Time 1

Schedule:Day:Interval,
    Office Bldg Equip Default Schedule,  !- Name
    Fraction,                !- Schedule Type Limits Name
    No,                      !- Interpolate to Timestep
    08:00,                   !- Time 1 {hh:mm}
    0.4,                     !- Value Until Time 1
    12:00,                   !- Time 2 {hh:mm}
    0.9,                     !- Value Until Time 2
    13:00,                   !- Time 3 {hh:mm}
    0.8,                     !- Value Until Time 3
    17:00,                   !- Time 4 {hh:mm}
    0.9,                     !- Value Until Time 4
    18:00,                   !- Time 5 {hh:mm}
    0.8,                     !- Value Until Time 5
    20:00,                   !- Time 6 {hh:mm}
    0.6,                     !- Value Until Time 6
    22:00,                   !- Time 7 {hh:mm}
    0.5,                     !- Value Until Time 7
    24:00,                   !- Time 8 {hh:mm}
    0.4;                     !- Value Until Time 8

Schedule:Day:Interval,
    Office Bldg Equip Rule 2 Day Schedule,  !- Name
    Fraction,                !- Schedule Type Limits Name
    No,                      !- Interpolate to Timestep
    06:00,                   !- Time 1 {hh:mm}
    0.3,                     !- Value Until Time 1
    08:00,                   !- Time 2 {hh:mm}
    0.4,                     !- Value Until Time 2
    14:00,                   !- Time 3 {hh:mm}
    0.5,                     !- Value Until Time 3
    17:00,                   !- Time 4 {hh:mm}
    0.35,                    !- Value Until Time 4
    24:00,                   !- Time 5 {hh:mm}
    0.3;                     !- Value Until Time 5

Schedule:Day:Interval,
    Office Bldg Equip Rule 1 Day Schedule,  !- Name
    Fraction,                !- Schedule Type Limits Name
    No,                      !- Interpolate to Timestep
    24:00,                   !- Time 1 {hh:mm}
    0.3;                     !- Value Until Time 1

Schedule:Day:Interval,
    Office Bldg Equip Summer Design Day,  !- Name
    Fraction,                !- Schedule Type Limits Name
    No,                      !- Interpolate to Timestep
    24:00,                   !- Time 1 {hh:mm}
    1;                       !- Value Until Time 1

Schedule:Day:Interval,
    Office Bldg Equip Winter Design Day,  !- Name
    Fraction,                !- Schedule Type Limits Name
    No,                      !- Interpolate to Timestep
    24:00,                   !- Time 1 {hh:mm}
    0;                       !- Value Until Time 1

Schedule:Day:Interval,
    Large Office Activity Default Schedule,  !- Name
    ActivityLevel 5,         !- Schedule Type Limits Name
    No,                      !- Interpolate to Timestep
    24:00,                   !- Time 1 {hh:mm}
    120;                     !- Value Until Time 1

Schedule:Day:Interval,
    Large Office Activity Summer Design Day,  !- Name
    ActivityLevel 5,         !- Schedule Type Limits Name
    No,                      !- Interpolate to Timestep
    24:00,                   !- Time 1 {hh:mm}
    120;                     !- Value Until Time 1

Schedule:Day:Interval,
    Large Office Activity Winter Design Day,  !- Name
    ActivityLevel 5,         !- Schedule Type Limits Name
    No,                      !- Interpolate to Timestep
    24:00,                   !- Time 1 {hh:mm}
    120;                     !- Value Until Time 1

Schedule:Day:Interval,
    Large Office Bldg Equip Default Schedule,  !- Name
    Fractional,              !- Schedule Type Limits Name
    No,                      !- Interpolate to Timestep
    08:00,                   !- Time 1 {hh:mm}
    0.4,                     !- Value Until Time 1
    12:00,                   !- Time 2 {hh:mm}
    0.9,                     !- Value Until Time 2
    13:00,                   !- Time 3 {hh:mm}
    0.8,                     !- Value Until Time 3
    17:00,                   !- Time 4 {hh:mm}
    0.9,                     !- Value Until Time 4
    18:00,                   !- Time 5 {hh:mm}
    0.8,                     !- Value Until Time 5
    20:00,                   !- Time 6 {hh:mm}
    0.6,                     !- Value Until Time 6
    22:00,                   !- Time 7 {hh:mm}
    0.5,                     !- Value Until Time 7
    24:00,                   !- Time 8 {hh:mm}
    0.4;                     !- Value Until Time 8

Schedule:Day:Interval,
    Large Office Bldg Equip Rule 1 Day Schedule,  !- Name
    Fractional,              !- Schedule Type Limits Name
    No,                      !- Interpolate to Timestep
    24:00,                   !- Time 1 {hh:mm}
    0.3;                     !- Value Until Time 1

Schedule:Day:Interval,
    Large Office Bldg Equip Rule 2 Day Schedule,  !- Name
    Fractional,              !- Schedule Type Limits Name
    No,                      !- Interpolate to Timestep
    06:00,                   !- Time 1 {hh:mm}
    0.3,                     !- Value Until Time 1
    08:00,                   !- Time 2 {hh:mm}
    0.4,                     !- Value Until Time 2
    14:00,                   !- Time 3 {hh:mm}
    0.5,                     !- Value Until Time 3
    17:00,                   !- Time 4 {hh:mm}
    0.35,                    !- Value Until Time 4
    24:00,                   !- Time 5 {hh:mm}
    0.3;                     !- Value Until Time 5

Schedule:Day:Interval,
    Large Office Bldg Equip Summer Design Day,  !- Name
    Fractional,              !- Schedule Type Limits Name
    No,                      !- Interpolate to Timestep
    24:00,                   !- Time 1 {hh:mm}
    1;                       !- Value Until Time 1

Schedule:Day:Interval,
    Large Office Bldg Equip Winter Design Day,  !- Name
    Fractional,              !- Schedule Type Limits Name
    No,                      !- Interpolate to Timestep
    24:00,                   !- Time 1 {hh:mm}
    0;                       !- Value Until Time 1

Schedule:Day:Interval,
    Large Office Bldg Light Default Schedule,  !- Name
    Fractional,              !- Schedule Type Limits Name
    No,                      !- Interpolate to Timestep
    05:00,                   !- Time 1 {hh:mm}
    0.05,                    !- Value Until Time 1
    07:00,                   !- Time 2 {hh:mm}
    0.1,                     !- Value Until Time 2
    08:00,                   !- Time 3 {hh:mm}
    0.3,                     !- Value Until Time 3
    17:00,                   !- Time 4 {hh:mm}
    0.9,                     !- Value Until Time 4
    18:00,                   !- Time 5 {hh:mm}
    0.7,                     !- Value Until Time 5
    20:00,                   !- Time 6 {hh:mm}
    0.5,                     !- Value Until Time 6
    22:00,                   !- Time 7 {hh:mm}
    0.3,                     !- Value Until Time 7
    23:00,                   !- Time 8 {hh:mm}
    0.1,                     !- Value Until Time 8
    24:00,                   !- Time 9 {hh:mm}
    0.05;                    !- Value Until Time 9

Schedule:Day:Interval,
    Large Office Bldg Light Rule 1 Day Schedule,  !- Name
    Fractional,              !- Schedule Type Limits Name
    No,                      !- Interpolate to Timestep
    24:00,                   !- Time 1 {hh:mm}
    0.05;                    !- Value Until Time 1

Schedule:Day:Interval,
    Large Office Bldg Light Rule 2 Day Schedule,  !- Name
    Fractional,              !- Schedule Type Limits Name
    No,                      !- Interpolate to Timestep
    06:00,                   !- Time 1 {hh:mm}
    0.05,                    !- Value Until Time 1
    08:00,                   !- Time 2 {hh:mm}
    0.1,                     !- Value Until Time 2
    14:00,                   !- Time 3 {hh:mm}
    0.5,                     !- Value Until Time 3
    17:00,                   !- Time 4 {hh:mm}
    0.15,                    !- Value Until Time 4
    24:00,                   !- Time 5 {hh:mm}
    0.05;                    !- Value Until Time 5

Schedule:Day:Interval,
    Large Office Bldg Light Summer Design Day,  !- Name
    Fractional,              !- Schedule Type Limits Name
    No,                      !- Interpolate to Timestep
    24:00,                   !- Time 1 {hh:mm}
    1;                       !- Value Until Time 1

Schedule:Day:Interval,
    Large Office Bldg Light Winter Design Day,  !- Name
    Fractional,              !- Schedule Type Limits Name
    No,                      !- Interpolate to Timestep
    24:00,                   !- Time 1 {hh:mm}
    0;                       !- Value Until Time 1

Schedule:Day:Interval,
    Large Office Bldg Occ Default Schedule,  !- Name
    Fractional,              !- Schedule Type Limits Name
    No,                      !- Interpolate to Timestep
    06:00,                   !- Time 1 {hh:mm}
    0,                       !- Value Until Time 1
    07:00,                   !- Time 2 {hh:mm}
    0.1,                     !- Value Until Time 2
    08:00,                   !- Time 3 {hh:mm}
    0.2,                     !- Value Until Time 3
    12:00,                   !- Time 4 {hh:mm}
    0.95,                    !- Value Until Time 4
    13:00,                   !- Time 5 {hh:mm}
    0.5,                     !- Value Until Time 5
    17:00,                   !- Time 6 {hh:mm}
    0.95,                    !- Value Until Time 6
    18:00,                   !- Time 7 {hh:mm}
    0.7,                     !- Value Until Time 7
    20:00,                   !- Time 8 {hh:mm}
    0.4,                     !- Value Until Time 8
    22:00,                   !- Time 9 {hh:mm}
    0.1,                     !- Value Until Time 9
    24:00,                   !- Time 10 {hh:mm}
    0.05;                    !- Value Until Time 10

Schedule:Day:Interval,
    Large Office Bldg Occ Rule 1 Day Schedule,  !- Name
    Fractional,              !- Schedule Type Limits Name
    No,                      !- Interpolate to Timestep
    24:00,                   !- Time 1 {hh:mm}
    0;                       !- Value Until Time 1

Schedule:Day:Interval,
    Large Office Bldg Occ Rule 2 Day Schedule,  !- Name
    Fractional,              !- Schedule Type Limits Name
    No,                      !- Interpolate to Timestep
    06:00,                   !- Time 1 {hh:mm}
    0,                       !- Value Until Time 1
    08:00,                   !- Time 2 {hh:mm}
    0.1,                     !- Value Until Time 2
    14:00,                   !- Time 3 {hh:mm}
    0.5,                     !- Value Until Time 3
    17:00,                   !- Time 4 {hh:mm}
    0.1,                     !- Value Until Time 4
    24:00,                   !- Time 5 {hh:mm}
    0;                       !- Value Until Time 5

Schedule:Day:Interval,
    Large Office Bldg Occ Summer Design Day,  !- Name
    Fractional,              !- Schedule Type Limits Name
    No,                      !- Interpolate to Timestep
    06:00,                   !- Time 1 {hh:mm}
    0,                       !- Value Until Time 1
    22:00,                   !- Time 2 {hh:mm}
    1,                       !- Value Until Time 2
    24:00,                   !- Time 3 {hh:mm}
    0.05;                    !- Value Until Time 3

Schedule:Day:Interval,
    Large Office Bldg Occ Winter Design Day,  !- Name
    Fractional,              !- Schedule Type Limits Name
    No,                      !- Interpolate to Timestep
    24:00,                   !- Time 1 {hh:mm}
    0;                       !- Value Until Time 1

Schedule:Day:Interval,
    Large Office ClgSetp Default Schedule,  !- Name
    Temperature 5,           !- Schedule Type Limits Name
    No,                      !- Interpolate to Timestep
    06:00,                   !- Time 1 {hh:mm}
    26.7,                    !- Value Until Time 1
    22:00,                   !- Time 2 {hh:mm}
    24,                      !- Value Until Time 2
    24:00,                   !- Time 3 {hh:mm}
    26.7;                    !- Value Until Time 3

Schedule:Day:Interval,
    Large Office ClgSetp Rule 1 Day Schedule,  !- Name
    Temperature 5,           !- Schedule Type Limits Name
    No,                      !- Interpolate to Timestep
    24:00,                   !- Time 1 {hh:mm}
    26.7;                    !- Value Until Time 1

Schedule:Day:Interval,
    Large Office ClgSetp Rule 2 Day Schedule,  !- Name
    Temperature 5,           !- Schedule Type Limits Name
    No,                      !- Interpolate to Timestep
    06:00,                   !- Time 1 {hh:mm}
    26.7,                    !- Value Until Time 1
    18:00,                   !- Time 2 {hh:mm}
    24,                      !- Value Until Time 2
    24:00,                   !- Time 3 {hh:mm}
    26.7;                    !- Value Until Time 3

Schedule:Day:Interval,
    Large Office ClgSetp Summer Design Day,  !- Name
    Temperature 5,           !- Schedule Type Limits Name
    No,                      !- Interpolate to Timestep
    06:00,                   !- Time 1 {hh:mm}
    26.7,                    !- Value Until Time 1
    22:00,                   !- Time 2 {hh:mm}
    24,                      !- Value Until Time 2
    24:00,                   !- Time 3 {hh:mm}
    26.7;                    !- Value Until Time 3

Schedule:Day:Interval,
    Large Office ClgSetp Winter Design Day,  !- Name
    Temperature 5,           !- Schedule Type Limits Name
    No,                      !- Interpolate to Timestep
    24:00,                   !- Time 1 {hh:mm}
    26.7;                    !- Value Until Time 1

Schedule:Day:Interval,
    Large Office HtgSetp Default Schedule,  !- Name
    Temperature 3,           !- Schedule Type Limits Name
    No,                      !- Interpolate to Timestep
    06:00,                   !- Time 1 {hh:mm}
    15.6,                    !- Value Until Time 1
    22:00,                   !- Time 2 {hh:mm}
    21,                      !- Value Until Time 2
    24:00,                   !- Time 3 {hh:mm}
    15.6;                    !- Value Until Time 3

Schedule:Day:Interval,
    Large Office HtgSetp Rule 1 Day Schedule,  !- Name
    Temperature 3,           !- Schedule Type Limits Name
    No,                      !- Interpolate to Timestep
    24:00,                   !- Time 1 {hh:mm}
    15.6;                    !- Value Until Time 1

Schedule:Day:Interval,
    Large Office HtgSetp Rule 2 Day Schedule,  !- Name
    Temperature 3,           !- Schedule Type Limits Name
    No,                      !- Interpolate to Timestep
    06:00,                   !- Time 1 {hh:mm}
    15.6,                    !- Value Until Time 1
    18:00,                   !- Time 2 {hh:mm}
    21,                      !- Value Until Time 2
    24:00,                   !- Time 3 {hh:mm}
    15.6;                    !- Value Until Time 3

Schedule:Day:Interval,
    Large Office HtgSetp Summer Design Day,  !- Name
    Temperature 3,           !- Schedule Type Limits Name
    No,                      !- Interpolate to Timestep
    24:00,                   !- Time 1 {hh:mm}
    15.6;                    !- Value Until Time 1

Schedule:Day:Interval,
    Large Office HtgSetp Winter Design Day,  !- Name
    Temperature 3,           !- Schedule Type Limits Name
    No,                      !- Interpolate to Timestep
    24:00,                   !- Time 1 {hh:mm}
    21;                      !- Value Until Time 1

Schedule:Day:Interval,
    Large Office Infil Quarter On Default Schedule,  !- Name
    Fractional,              !- Schedule Type Limits Name
    No,                      !- Interpolate to Timestep
    06:00,                   !- Time 1 {hh:mm}
    1,                       !- Value Until Time 1
    22:00,                   !- Time 2 {hh:mm}
    0.25,                    !- Value Until Time 2
    24:00,                   !- Time 3 {hh:mm}
    1;                       !- Value Until Time 3

Schedule:Day:Interval,
    Large Office Infil Quarter On Rule 1 Day Schedule,  !- Name
    Fractional,              !- Schedule Type Limits Name
    No,                      !- Interpolate to Timestep
    24:00,                   !- Time 1 {hh:mm}
    1;                       !- Value Until Time 1

Schedule:Day:Interval,
    Large Office Infil Quarter On Rule 2 Day Schedule,  !- Name
    Fractional,              !- Schedule Type Limits Name
    No,                      !- Interpolate to Timestep
    06:00,                   !- Time 1 {hh:mm}
    1,                       !- Value Until Time 1
    18:00,                   !- Time 2 {hh:mm}
    0.25,                    !- Value Until Time 2
    24:00,                   !- Time 3 {hh:mm}
    1;                       !- Value Until Time 3

Schedule:Day:Interval,
    Large Office Infil Quarter On Summer Design Day,  !- Name
    Fractional,              !- Schedule Type Limits Name
    No,                      !- Interpolate to Timestep
    06:00,                   !- Time 1 {hh:mm}
    1,                       !- Value Until Time 1
    22:00,                   !- Time 2 {hh:mm}
    0.25,                    !- Value Until Time 2
    24:00,                   !- Time 3 {hh:mm}
    1;                       !- Value Until Time 3

Schedule:Day:Interval,
    Large Office Infil Quarter On Winter Design Day,  !- Name
    Fractional,              !- Schedule Type Limits Name
    No,                      !- Interpolate to Timestep
    06:00,                   !- Time 1 {hh:mm}
    1,                       !- Value Until Time 1
    18:00,                   !- Time 2 {hh:mm}
    0.25,                    !- Value Until Time 2
    24:00,                   !- Time 3 {hh:mm}
    1;                       !- Value Until Time 3

Schedule:Day:Interval,
    Medium Office Activity Default Schedule,  !- Name
    ActivityLevel 13,        !- Schedule Type Limits Name
    No,                      !- Interpolate to Timestep
    24:00,                   !- Time 1 {hh:mm}
    120;                     !- Value Until Time 1

Schedule:Day:Interval,
    Medium Office Activity Summer Design Day,  !- Name
    ActivityLevel 13,        !- Schedule Type Limits Name
    No,                      !- Interpolate to Timestep
    24:00,                   !- Time 1 {hh:mm}
    120;                     !- Value Until Time 1

Schedule:Day:Interval,
    Medium Office Activity Winter Design Day,  !- Name
    ActivityLevel 13,        !- Schedule Type Limits Name
    No,                      !- Interpolate to Timestep
    24:00,                   !- Time 1 {hh:mm}
    120;                     !- Value Until Time 1

Schedule:Day:Interval,
    Medium Office Bldg Equip Default Schedule,  !- Name
    Fraction,                !- Schedule Type Limits Name
    No,                      !- Interpolate to Timestep
    08:00,                   !- Time 1 {hh:mm}
    0.4,                     !- Value Until Time 1
    12:00,                   !- Time 2 {hh:mm}
    0.9,                     !- Value Until Time 2
    13:00,                   !- Time 3 {hh:mm}
    0.8,                     !- Value Until Time 3
    17:00,                   !- Time 4 {hh:mm}
    0.9,                     !- Value Until Time 4
    18:00,                   !- Time 5 {hh:mm}
    0.8,                     !- Value Until Time 5
    20:00,                   !- Time 6 {hh:mm}
    0.6,                     !- Value Until Time 6
    22:00,                   !- Time 7 {hh:mm}
    0.5,                     !- Value Until Time 7
    24:00,                   !- Time 8 {hh:mm}
    0.4;                     !- Value Until Time 8

Schedule:Day:Interval,
    Medium Office Bldg Equip Rule 1 Day Schedule,  !- Name
    Fraction,                !- Schedule Type Limits Name
    No,                      !- Interpolate to Timestep
    24:00,                   !- Time 1 {hh:mm}
    0.3;                     !- Value Until Time 1

Schedule:Day:Interval,
    Medium Office Bldg Equip Rule 2 Day Schedule,  !- Name
    Fraction,                !- Schedule Type Limits Name
    No,                      !- Interpolate to Timestep
    06:00,                   !- Time 1 {hh:mm}
    0.3,                     !- Value Until Time 1
    08:00,                   !- Time 2 {hh:mm}
    0.4,                     !- Value Until Time 2
    14:00,                   !- Time 3 {hh:mm}
    0.5,                     !- Value Until Time 3
    17:00,                   !- Time 4 {hh:mm}
    0.35,                    !- Value Until Time 4
    24:00,                   !- Time 5 {hh:mm}
    0.3;                     !- Value Until Time 5

Schedule:Day:Interval,
    Medium Office Bldg Equip Summer Design Day,  !- Name
    Fraction,                !- Schedule Type Limits Name
    No,                      !- Interpolate to Timestep
    24:00,                   !- Time 1 {hh:mm}
    1;                       !- Value Until Time 1

Schedule:Day:Interval,
    Medium Office Bldg Equip Winter Design Day,  !- Name
    Fraction,                !- Schedule Type Limits Name
    No,                      !- Interpolate to Timestep
    24:00,                   !- Time 1 {hh:mm}
    0;                       !- Value Until Time 1

Schedule:Day:Interval,
    Medium Office Bldg Occ Default Schedule,  !- Name
    Fraction,                !- Schedule Type Limits Name
    No,                      !- Interpolate to Timestep
    06:00,                   !- Time 1 {hh:mm}
    0,                       !- Value Until Time 1
    07:00,                   !- Time 2 {hh:mm}
    0.1,                     !- Value Until Time 2
    08:00,                   !- Time 3 {hh:mm}
    0.2,                     !- Value Until Time 3
    12:00,                   !- Time 4 {hh:mm}
    0.95,                    !- Value Until Time 4
    13:00,                   !- Time 5 {hh:mm}
    0.5,                     !- Value Until Time 5
    17:00,                   !- Time 6 {hh:mm}
    0.95,                    !- Value Until Time 6
    18:00,                   !- Time 7 {hh:mm}
    0.7,                     !- Value Until Time 7
    20:00,                   !- Time 8 {hh:mm}
    0.4,                     !- Value Until Time 8
    22:00,                   !- Time 9 {hh:mm}
    0.1,                     !- Value Until Time 9
    24:00,                   !- Time 10 {hh:mm}
    0.05;                    !- Value Until Time 10

Schedule:Day:Interval,
    Medium Office Bldg Occ Rule 1 Day Schedule,  !- Name
    Fraction,                !- Schedule Type Limits Name
    No,                      !- Interpolate to Timestep
    24:00,                   !- Time 1 {hh:mm}
    0;                       !- Value Until Time 1

Schedule:Day:Interval,
    Medium Office Bldg Occ Rule 2 Day Schedule,  !- Name
    Fraction,                !- Schedule Type Limits Name
    No,                      !- Interpolate to Timestep
    06:00,                   !- Time 1 {hh:mm}
    0,                       !- Value Until Time 1
    08:00,                   !- Time 2 {hh:mm}
    0.1,                     !- Value Until Time 2
    14:00,                   !- Time 3 {hh:mm}
    0.5,                     !- Value Until Time 3
    17:00,                   !- Time 4 {hh:mm}
    0.1,                     !- Value Until Time 4
    24:00,                   !- Time 5 {hh:mm}
    0;                       !- Value Until Time 5

Schedule:Day:Interval,
    Medium Office Bldg Occ Summer Design Day,  !- Name
    Fraction,                !- Schedule Type Limits Name
    No,                      !- Interpolate to Timestep
    06:00,                   !- Time 1 {hh:mm}
    0,                       !- Value Until Time 1
    22:00,                   !- Time 2 {hh:mm}
    1,                       !- Value Until Time 2
    24:00,                   !- Time 3 {hh:mm}
    0.05;                    !- Value Until Time 3

Schedule:Day:Interval,
    Medium Office Bldg Occ Winter Design Day,  !- Name
    Fraction,                !- Schedule Type Limits Name
    No,                      !- Interpolate to Timestep
    24:00,                   !- Time 1 {hh:mm}
    0;                       !- Value Until Time 1

Schedule:Day:Interval,
    Medium Office ClgSetp Default Schedule,  !- Name
    Temperature 37,          !- Schedule Type Limits Name
    No,                      !- Interpolate to Timestep
    06:00,                   !- Time 1 {hh:mm}
    26.7,                    !- Value Until Time 1
    22:00,                   !- Time 2 {hh:mm}
    24,                      !- Value Until Time 2
    24:00,                   !- Time 3 {hh:mm}
    26.7;                    !- Value Until Time 3

Schedule:Day:Interval,
    Medium Office ClgSetp Rule 1 Day Schedule,  !- Name
    Temperature 37,          !- Schedule Type Limits Name
    No,                      !- Interpolate to Timestep
    24:00,                   !- Time 1 {hh:mm}
    26.7;                    !- Value Until Time 1

Schedule:Day:Interval,
    Medium Office ClgSetp Rule 2 Day Schedule,  !- Name
    Temperature 37,          !- Schedule Type Limits Name
    No,                      !- Interpolate to Timestep
    06:00,                   !- Time 1 {hh:mm}
    26.7,                    !- Value Until Time 1
    18:00,                   !- Time 2 {hh:mm}
    24,                      !- Value Until Time 2
    24:00,                   !- Time 3 {hh:mm}
    26.7;                    !- Value Until Time 3

Schedule:Day:Interval,
    Medium Office ClgSetp Summer Design Day,  !- Name
    Temperature 37,          !- Schedule Type Limits Name
    No,                      !- Interpolate to Timestep
    06:00,                   !- Time 1 {hh:mm}
    26.7,                    !- Value Until Time 1
    22:00,                   !- Time 2 {hh:mm}
    24,                      !- Value Until Time 2
    24:00,                   !- Time 3 {hh:mm}
    26.7;                    !- Value Until Time 3

Schedule:Day:Interval,
    Medium Office ClgSetp Winter Design Day,  !- Name
    Temperature 37,          !- Schedule Type Limits Name
    No,                      !- Interpolate to Timestep
    24:00,                   !- Time 1 {hh:mm}
    26.7;                    !- Value Until Time 1

Schedule:Day:Interval,
    Medium Office HtgSetp Default Schedule,  !- Name
    Temperature 36,          !- Schedule Type Limits Name
    No,                      !- Interpolate to Timestep
    06:00,                   !- Time 1 {hh:mm}
    15.6,                    !- Value Until Time 1
    22:00,                   !- Time 2 {hh:mm}
    21,                      !- Value Until Time 2
    24:00,                   !- Time 3 {hh:mm}
    15.6;                    !- Value Until Time 3

Schedule:Day:Interval,
    Medium Office HtgSetp Rule 1 Day Schedule,  !- Name
    Temperature 36,          !- Schedule Type Limits Name
    No,                      !- Interpolate to Timestep
    24:00,                   !- Time 1 {hh:mm}
    15.6;                    !- Value Until Time 1

Schedule:Day:Interval,
    Medium Office HtgSetp Rule 2 Day Schedule,  !- Name
    Temperature 36,          !- Schedule Type Limits Name
    No,                      !- Interpolate to Timestep
    06:00,                   !- Time 1 {hh:mm}
    15.6,                    !- Value Until Time 1
    18:00,                   !- Time 2 {hh:mm}
    21,                      !- Value Until Time 2
    24:00,                   !- Time 3 {hh:mm}
    15.6;                    !- Value Until Time 3

Schedule:Day:Interval,
    Medium Office HtgSetp Summer Design Day,  !- Name
    Temperature 36,          !- Schedule Type Limits Name
    No,                      !- Interpolate to Timestep
    24:00,                   !- Time 1 {hh:mm}
    15.6;                    !- Value Until Time 1

Schedule:Day:Interval,
    Medium Office HtgSetp Winter Design Day,  !- Name
    Temperature 36,          !- Schedule Type Limits Name
    No,                      !- Interpolate to Timestep
    24:00,                   !- Time 1 {hh:mm}
    21;                      !- Value Until Time 1

Schedule:Day:Interval,
    Medium Office Infil Quarter On Default Schedule,  !- Name
    Fraction,                !- Schedule Type Limits Name
    No,                      !- Interpolate to Timestep
    06:00,                   !- Time 1 {hh:mm}
    1,                       !- Value Until Time 1
    22:00,                   !- Time 2 {hh:mm}
    0.25,                    !- Value Until Time 2
    24:00,                   !- Time 3 {hh:mm}
    1;                       !- Value Until Time 3

Schedule:Day:Interval,
    Medium Office Infil Quarter On Rule 1 Day Schedule,  !- Name
    Fraction,                !- Schedule Type Limits Name
    No,                      !- Interpolate to Timestep
    24:00,                   !- Time 1 {hh:mm}
    1;                       !- Value Until Time 1

Schedule:Day:Interval,
    Medium Office Infil Quarter On Rule 2 Day Schedule,  !- Name
    Fraction,                !- Schedule Type Limits Name
    No,                      !- Interpolate to Timestep
    06:00,                   !- Time 1 {hh:mm}
    1,                       !- Value Until Time 1
    18:00,                   !- Time 2 {hh:mm}
    0.25,                    !- Value Until Time 2
    24:00,                   !- Time 3 {hh:mm}
    1;                       !- Value Until Time 3

Schedule:Day:Interval,
    Medium Office Infil Quarter On Summer Design Day,  !- Name
    Fraction,                !- Schedule Type Limits Name
    No,                      !- Interpolate to Timestep
    06:00,                   !- Time 1 {hh:mm}
    1,                       !- Value Until Time 1
    22:00,                   !- Time 2 {hh:mm}
    0.25,                    !- Value Until Time 2
    24:00,                   !- Time 3 {hh:mm}
    1;                       !- Value Until Time 3

Schedule:Day:Interval,
    Medium Office Infil Quarter On Winter Design Day,  !- Name
    Fraction,                !- Schedule Type Limits Name
    No,                      !- Interpolate to Timestep
    06:00,                   !- Time 1 {hh:mm}
    1,                       !- Value Until Time 1
    18:00,                   !- Time 2 {hh:mm}
    0.25,                    !- Value Until Time 2
    24:00,                   !- Time 3 {hh:mm}
    1;                       !- Value Until Time 3

Schedule:Day:Interval,
    Office Bldg Occ Default Schedule 1,  !- Name
    Fraction,                !- Schedule Type Limits Name
    No,                      !- Interpolate to Timestep
    06:00,                   !- Time 1 {hh:mm}
    0,                       !- Value Until Time 1
    07:00,                   !- Time 2 {hh:mm}
    0.100000001490116,       !- Value Until Time 2
    08:00,                   !- Time 3 {hh:mm}
    0.200000002980232,       !- Value Until Time 3
    20:00,                   !- Time 4 {hh:mm}
    0.400000005960464,       !- Value Until Time 4
    22:00,                   !- Time 5 {hh:mm}
    0.100000001490116,       !- Value Until Time 5
    24:00,                   !- Time 6 {hh:mm}
    0.0500000007450581;      !- Value Until Time 6

Schedule:Day:Interval,
    Office Bldg Occ Rule 1 Day Schedule 1,  !- Name
    Fraction,                !- Schedule Type Limits Name
    No,                      !- Interpolate to Timestep
    24:00,                   !- Time 1 {hh:mm}
    0;                       !- Value Until Time 1

Schedule:Day:Interval,
    Office Bldg Occ Rule 2 Day Schedule 1,  !- Name
    Fraction,                !- Schedule Type Limits Name
    No,                      !- Interpolate to Timestep
    06:00,                   !- Time 1 {hh:mm}
    0,                       !- Value Until Time 1
    08:00,                   !- Time 2 {hh:mm}
    0.100000001490116,       !- Value Until Time 2
    14:00,                   !- Time 3 {hh:mm}
    0.25,                    !- Value Until Time 3
    17:00,                   !- Time 4 {hh:mm}
    0.100000001490116,       !- Value Until Time 4
    24:00,                   !- Time 5 {hh:mm}
    0;                       !- Value Until Time 5

Schedule:Day:Interval,
    Office Bldg Occ Summer Design Day 1,  !- Name
    Fraction,                !- Schedule Type Limits Name
    No,                      !- Interpolate to Timestep
    06:00,                   !- Time 1 {hh:mm}
    0,                       !- Value Until Time 1
    22:00,                   !- Time 2 {hh:mm}
    1,                       !- Value Until Time 2
    24:00,                   !- Time 3 {hh:mm}
    0.05;                    !- Value Until Time 3

Schedule:Day:Interval,
    Office Bldg Occ Winter Design Day 1,  !- Name
    Fraction,                !- Schedule Type Limits Name
    No,                      !- Interpolate to Timestep
    24:00,                   !- Time 1 {hh:mm}
    0;                       !- Value Until Time 1

Schedule:Day:Interval,
    Office Infil Quarter On Default Schedule,  !- Name
    Fraction,                !- Schedule Type Limits Name
    No,                      !- Interpolate to Timestep
    06:00,                   !- Time 1 {hh:mm}
    1,                       !- Value Until Time 1
    22:00,                   !- Time 2 {hh:mm}
    0.25,                    !- Value Until Time 2
    24:00,                   !- Time 3 {hh:mm}
    1;                       !- Value Until Time 3

Schedule:Day:Interval,
    Office Infil Quarter On Rule 1 Day Schedule,  !- Name
    Fraction,                !- Schedule Type Limits Name
    No,                      !- Interpolate to Timestep
    24:00,                   !- Time 1 {hh:mm}
    1;                       !- Value Until Time 1

Schedule:Day:Interval,
    Office Infil Quarter On Rule 2 Day Schedule,  !- Name
    Fraction,                !- Schedule Type Limits Name
    No,                      !- Interpolate to Timestep
    06:00,                   !- Time 1 {hh:mm}
    1,                       !- Value Until Time 1
    18:00,                   !- Time 2 {hh:mm}
    0.25,                    !- Value Until Time 2
    24:00,                   !- Time 3 {hh:mm}
    1;                       !- Value Until Time 3

Schedule:Day:Interval,
    Office Infil Quarter On Summer Design Day,  !- Name
    Fraction,                !- Schedule Type Limits Name
    No,                      !- Interpolate to Timestep
    06:00,                   !- Time 1 {hh:mm}
    1,                       !- Value Until Time 1
    22:00,                   !- Time 2 {hh:mm}
    0.25,                    !- Value Until Time 2
    24:00,                   !- Time 3 {hh:mm}
    1;                       !- Value Until Time 3

Schedule:Day:Interval,
    Office Infil Quarter On Winter Design Day,  !- Name
    Fraction,                !- Schedule Type Limits Name
    No,                      !- Interpolate to Timestep
    06:00,                   !- Time 1 {hh:mm}
    1,                       !- Value Until Time 1
    18:00,                   !- Time 2 {hh:mm}
    0.25,                    !- Value Until Time 2
    24:00,                   !- Time 3 {hh:mm}
    1;                       !- Value Until Time 3

Schedule:Day:Interval,
    Small Office Activity Default Schedule,  !- Name
    ActivityLevel 12,        !- Schedule Type Limits Name
    No,                      !- Interpolate to Timestep
    24:00,                   !- Time 1 {hh:mm}
    120;                     !- Value Until Time 1

Schedule:Day:Interval,
    Small Office Activity Summer Design Day,  !- Name
    ActivityLevel 12,        !- Schedule Type Limits Name
    No,                      !- Interpolate to Timestep
    24:00,                   !- Time 1 {hh:mm}
    120;                     !- Value Until Time 1

Schedule:Day:Interval,
    Small Office Activity Winter Design Day,  !- Name
    ActivityLevel 12,        !- Schedule Type Limits Name
    No,                      !- Interpolate to Timestep
    24:00,                   !- Time 1 {hh:mm}
    120;                     !- Value Until Time 1

Schedule:Day:Interval,
    Small Office Bldg Equip Default Schedule,  !- Name
    Fractional,              !- Schedule Type Limits Name
    No,                      !- Interpolate to Timestep
    08:00,                   !- Time 1 {hh:mm}
    0.4,                     !- Value Until Time 1
    12:00,                   !- Time 2 {hh:mm}
    0.9,                     !- Value Until Time 2
    13:00,                   !- Time 3 {hh:mm}
    0.8,                     !- Value Until Time 3
    17:00,                   !- Time 4 {hh:mm}
    0.9,                     !- Value Until Time 4
    18:00,                   !- Time 5 {hh:mm}
    0.5,                     !- Value Until Time 5
    24:00,                   !- Time 6 {hh:mm}
    0.4;                     !- Value Until Time 6

Schedule:Day:Interval,
    Small Office Bldg Equip Rule 1 Day Schedule,  !- Name
    Fractional,              !- Schedule Type Limits Name
    No,                      !- Interpolate to Timestep
    24:00,                   !- Time 1 {hh:mm}
    0.3;                     !- Value Until Time 1

Schedule:Day:Interval,
    Small Office Bldg Equip Rule 2 Day Schedule,  !- Name
    Fractional,              !- Schedule Type Limits Name
    No,                      !- Interpolate to Timestep
    06:00,                   !- Time 1 {hh:mm}
    0.3,                     !- Value Until Time 1
    08:00,                   !- Time 2 {hh:mm}
    0.4,                     !- Value Until Time 2
    12:00,                   !- Time 3 {hh:mm}
    0.5,                     !- Value Until Time 3
    17:00,                   !- Time 4 {hh:mm}
    0.35,                    !- Value Until Time 4
    24:00,                   !- Time 5 {hh:mm}
    0.3;                     !- Value Until Time 5

Schedule:Day:Interval,
    Small Office Bldg Equip Summer Design Day,  !- Name
    Fractional,              !- Schedule Type Limits Name
    No,                      !- Interpolate to Timestep
    24:00,                   !- Time 1 {hh:mm}
    1;                       !- Value Until Time 1

Schedule:Day:Interval,
    Small Office Bldg Equip Winter Design Day,  !- Name
    Fractional,              !- Schedule Type Limits Name
    No,                      !- Interpolate to Timestep
    24:00,                   !- Time 1 {hh:mm}
    0;                       !- Value Until Time 1

Schedule:Day:Interval,
    Small Office Bldg Occ Default Schedule,  !- Name
    Fractional,              !- Schedule Type Limits Name
    No,                      !- Interpolate to Timestep
    06:00,                   !- Time 1 {hh:mm}
    0,                       !- Value Until Time 1
    07:00,                   !- Time 2 {hh:mm}
    0.1,                     !- Value Until Time 2
    08:00,                   !- Time 3 {hh:mm}
    0.2,                     !- Value Until Time 3
    12:00,                   !- Time 4 {hh:mm}
    0.95,                    !- Value Until Time 4
    13:00,                   !- Time 5 {hh:mm}
    0.5,                     !- Value Until Time 5
    17:00,                   !- Time 6 {hh:mm}
    0.95,                    !- Value Until Time 6
    18:00,                   !- Time 7 {hh:mm}
    0.3,                     !- Value Until Time 7
    20:00,                   !- Time 8 {hh:mm}
    0.1,                     !- Value Until Time 8
    24:00,                   !- Time 9 {hh:mm}
    0.05;                    !- Value Until Time 9

Schedule:Day:Interval,
    Small Office Bldg Occ Rule 1 Day Schedule,  !- Name
    Fractional,              !- Schedule Type Limits Name
    No,                      !- Interpolate to Timestep
    24:00,                   !- Time 1 {hh:mm}
    0;                       !- Value Until Time 1

Schedule:Day:Interval,
    Small Office Bldg Occ Rule 2 Day Schedule,  !- Name
    Fractional,              !- Schedule Type Limits Name
    No,                      !- Interpolate to Timestep
    06:00,                   !- Time 1 {hh:mm}
    0,                       !- Value Until Time 1
    08:00,                   !- Time 2 {hh:mm}
    0.1,                     !- Value Until Time 2
    12:00,                   !- Time 3 {hh:mm}
    0.3,                     !- Value Until Time 3
    17:00,                   !- Time 4 {hh:mm}
    0.1,                     !- Value Until Time 4
    24:00,                   !- Time 5 {hh:mm}
    0;                       !- Value Until Time 5

Schedule:Day:Interval,
    Small Office Bldg Occ Summer Design Day,  !- Name
    Fractional,              !- Schedule Type Limits Name
    No,                      !- Interpolate to Timestep
    06:00,                   !- Time 1 {hh:mm}
    0,                       !- Value Until Time 1
    22:00,                   !- Time 2 {hh:mm}
    1,                       !- Value Until Time 2
    24:00,                   !- Time 3 {hh:mm}
    0.05;                    !- Value Until Time 3

Schedule:Day:Interval,
    Small Office Bldg Occ Winter Design Day,  !- Name
    Fractional,              !- Schedule Type Limits Name
    No,                      !- Interpolate to Timestep
    24:00,                   !- Time 1 {hh:mm}
    0;                       !- Value Until Time 1

Schedule:Day:Interval,
    Small Office ClgSetp Default Schedule,  !- Name
    Temperature 4,           !- Schedule Type Limits Name
    No,                      !- Interpolate to Timestep
    06:00,                   !- Time 1 {hh:mm}
    26.7,                    !- Value Until Time 1
    22:00,                   !- Time 2 {hh:mm}
    24,                      !- Value Until Time 2
    24:00,                   !- Time 3 {hh:mm}
    26.7;                    !- Value Until Time 3

Schedule:Day:Interval,
    Small Office ClgSetp Rule 1 Day Schedule,  !- Name
    Temperature 4,           !- Schedule Type Limits Name
    No,                      !- Interpolate to Timestep
    24:00,                   !- Time 1 {hh:mm}
    26.7;                    !- Value Until Time 1

Schedule:Day:Interval,
    Small Office ClgSetp Rule 2 Day Schedule,  !- Name
    Temperature 4,           !- Schedule Type Limits Name
    No,                      !- Interpolate to Timestep
    06:00,                   !- Time 1 {hh:mm}
    26.7,                    !- Value Until Time 1
    18:00,                   !- Time 2 {hh:mm}
    24,                      !- Value Until Time 2
    24:00,                   !- Time 3 {hh:mm}
    26.7;                    !- Value Until Time 3

Schedule:Day:Interval,
    Small Office ClgSetp Summer Design Day,  !- Name
    Temperature 4,           !- Schedule Type Limits Name
    No,                      !- Interpolate to Timestep
    06:00,                   !- Time 1 {hh:mm}
    26.7,                    !- Value Until Time 1
    22:00,                   !- Time 2 {hh:mm}
    24,                      !- Value Until Time 2
    24:00,                   !- Time 3 {hh:mm}
    26.7;                    !- Value Until Time 3

Schedule:Day:Interval,
    Small Office ClgSetp Winter Design Day,  !- Name
    Temperature 4,           !- Schedule Type Limits Name
    No,                      !- Interpolate to Timestep
    24:00,                   !- Time 1 {hh:mm}
    26.7;                    !- Value Until Time 1

Schedule:Day:Interval,
    Small Office HtgSetp Default Schedule,  !- Name
    Temperature 11,          !- Schedule Type Limits Name
    No,                      !- Interpolate to Timestep
    06:00,                   !- Time 1 {hh:mm}
    15.6,                    !- Value Until Time 1
    22:00,                   !- Time 2 {hh:mm}
    21,                      !- Value Until Time 2
    24:00,                   !- Time 3 {hh:mm}
    15.6;                    !- Value Until Time 3

Schedule:Day:Interval,
    Small Office HtgSetp Rule 1 Day Schedule,  !- Name
    Temperature 11,          !- Schedule Type Limits Name
    No,                      !- Interpolate to Timestep
    24:00,                   !- Time 1 {hh:mm}
    15.6;                    !- Value Until Time 1

Schedule:Day:Interval,
    Small Office HtgSetp Rule 2 Day Schedule,  !- Name
    Temperature 11,          !- Schedule Type Limits Name
    No,                      !- Interpolate to Timestep
    06:00,                   !- Time 1 {hh:mm}
    15.6,                    !- Value Until Time 1
    18:00,                   !- Time 2 {hh:mm}
    21,                      !- Value Until Time 2
    24:00,                   !- Time 3 {hh:mm}
    15.6;                    !- Value Until Time 3

Schedule:Day:Interval,
    Small Office HtgSetp Summer Design Day,  !- Name
    Temperature 11,          !- Schedule Type Limits Name
    No,                      !- Interpolate to Timestep
    24:00,                   !- Time 1 {hh:mm}
    15.6;                    !- Value Until Time 1

Schedule:Day:Interval,
    Small Office HtgSetp Winter Design Day,  !- Name
    Temperature 11,          !- Schedule Type Limits Name
    No,                      !- Interpolate to Timestep
    24:00,                   !- Time 1 {hh:mm}
    21;                      !- Value Until Time 1

Schedule:Day:Interval,
    Small Office Infil Quarter On Default Schedule,  !- Name
    Fractional,              !- Schedule Type Limits Name
    No,                      !- Interpolate to Timestep
    06:00,                   !- Time 1 {hh:mm}
    1,                       !- Value Until Time 1
    22:00,                   !- Time 2 {hh:mm}
    0.25,                    !- Value Until Time 2
    24:00,                   !- Time 3 {hh:mm}
    1;                       !- Value Until Time 3

Schedule:Day:Interval,
    Small Office Infil Quarter On Rule 1 Day Schedule,  !- Name
    Fractional,              !- Schedule Type Limits Name
    No,                      !- Interpolate to Timestep
    24:00,                   !- Time 1 {hh:mm}
    1;                       !- Value Until Time 1

Schedule:Day:Interval,
    Small Office Infil Quarter On Rule 2 Day Schedule,  !- Name
    Fractional,              !- Schedule Type Limits Name
    No,                      !- Interpolate to Timestep
    06:00,                   !- Time 1 {hh:mm}
    1,                       !- Value Until Time 1
    18:00,                   !- Time 2 {hh:mm}
    0.25,                    !- Value Until Time 2
    24:00,                   !- Time 3 {hh:mm}
    1;                       !- Value Until Time 3

Schedule:Day:Interval,
    Small Office Infil Quarter On Summer Design Day,  !- Name
    Fractional,              !- Schedule Type Limits Name
    No,                      !- Interpolate to Timestep
    06:00,                   !- Time 1 {hh:mm}
    1,                       !- Value Until Time 1
    22:00,                   !- Time 2 {hh:mm}
    0.25,                    !- Value Until Time 2
    24:00,                   !- Time 3 {hh:mm}
    1;                       !- Value Until Time 3

Schedule:Day:Interval,
    Small Office Infil Quarter On Winter Design Day,  !- Name
    Fractional,              !- Schedule Type Limits Name
    No,                      !- Interpolate to Timestep
    06:00,                   !- Time 1 {hh:mm}
    1,                       !- Value Until Time 1
    18:00,                   !- Time 2 {hh:mm}
    0.25,                    !- Value Until Time 2
    24:00,                   !- Time 3 {hh:mm}
    1;                       !- Value Until Time 3


!-   ===========  ALL OBJECTS IN CLASS: SCHEDULE:WEEK:DAILY ===========

Schedule:Week:Daily,
    Office Bldg Light Week Rule - Jan1-Jan3,  !- Name
    Office Bldg Light Default Schedule,  !- Sunday Schedule:Day Name
    Office Bldg Light Default Schedule,  !- Monday Schedule:Day Name
    Office Bldg Light Default Schedule,  !- Tuesday Schedule:Day Name
    Office Bldg Light Default Schedule,  !- Wednesday Schedule:Day Name
    Office Bldg Light Default Schedule,  !- Thursday Schedule:Day Name
    Office Bldg Light Default Schedule,  !- Friday Schedule:Day Name
    Office Bldg Light Rule 2 Day Schedule,  !- Saturday Schedule:Day Name
    Office Bldg Light Default Schedule,  !- Holiday Schedule:Day Name
    Office Bldg Light Summer Design Day,  !- SummerDesignDay Schedule:Day Name
    Office Bldg Light Winter Design Day,  !- WinterDesignDay Schedule:Day Name
    Office Bldg Light Default Schedule,  !- CustomDay1 Schedule:Day Name
    Office Bldg Light Default Schedule;  !- CustomDay2 Schedule:Day Name

Schedule:Week:Daily,
    Office Bldg Light Week Rule - Jan4-Dec31,  !- Name
    Office Bldg Light Rule 1 Day Schedule,  !- Sunday Schedule:Day Name
    Office Bldg Light Default Schedule,  !- Monday Schedule:Day Name
    Office Bldg Light Default Schedule,  !- Tuesday Schedule:Day Name
    Office Bldg Light Default Schedule,  !- Wednesday Schedule:Day Name
    Office Bldg Light Default Schedule,  !- Thursday Schedule:Day Name
    Office Bldg Light Default Schedule,  !- Friday Schedule:Day Name
    Office Bldg Light Rule 2 Day Schedule,  !- Saturday Schedule:Day Name
    Office Bldg Light Default Schedule,  !- Holiday Schedule:Day Name
    Office Bldg Light Summer Design Day,  !- SummerDesignDay Schedule:Day Name
    Office Bldg Light Winter Design Day,  !- WinterDesignDay Schedule:Day Name
    Office Bldg Light Default Schedule,  !- CustomDay1 Schedule:Day Name
    Office Bldg Light Default Schedule;  !- CustomDay2 Schedule:Day Name

Schedule:Week:Daily,
    Office Work Occ Week Rule - Jan1-Jan3,  !- Name
    Office Bldg Occ Default Schedule,  !- Sunday Schedule:Day Name
    Office Bldg Occ Default Schedule,  !- Monday Schedule:Day Name
    Office Bldg Occ Default Schedule,  !- Tuesday Schedule:Day Name
    Office Bldg Occ Default Schedule,  !- Wednesday Schedule:Day Name
    Office Bldg Occ Default Schedule,  !- Thursday Schedule:Day Name
    Office Bldg Occ Default Schedule,  !- Friday Schedule:Day Name
    Office Bldg Occ Rule 2 Day Schedule,  !- Saturday Schedule:Day Name
    Office Bldg Occ Default Schedule,  !- Holiday Schedule:Day Name
    Office Bldg Occ Summer Design Day,  !- SummerDesignDay Schedule:Day Name
    Office Bldg Occ Winter Design Day,  !- WinterDesignDay Schedule:Day Name
    Office Bldg Occ Default Schedule,  !- CustomDay1 Schedule:Day Name
    Office Bldg Occ Default Schedule;  !- CustomDay2 Schedule:Day Name

Schedule:Week:Daily,
    Office Work Occ Week Rule - Jan4-Dec31,  !- Name
    Office Bldg Occ Rule 1 Day Schedule,  !- Sunday Schedule:Day Name
    Office Bldg Occ Default Schedule,  !- Monday Schedule:Day Name
    Office Bldg Occ Default Schedule,  !- Tuesday Schedule:Day Name
    Office Bldg Occ Default Schedule,  !- Wednesday Schedule:Day Name
    Office Bldg Occ Default Schedule,  !- Thursday Schedule:Day Name
    Office Bldg Occ Default Schedule,  !- Friday Schedule:Day Name
    Office Bldg Occ Rule 2 Day Schedule,  !- Saturday Schedule:Day Name
    Office Bldg Occ Default Schedule,  !- Holiday Schedule:Day Name
    Office Bldg Occ Summer Design Day,  !- SummerDesignDay Schedule:Day Name
    Office Bldg Occ Winter Design Day,  !- WinterDesignDay Schedule:Day Name
    Office Bldg Occ Default Schedule,  !- CustomDay1 Schedule:Day Name
    Office Bldg Occ Default Schedule;  !- CustomDay2 Schedule:Day Name

Schedule:Week:Daily,
    Office Activity Week Rule - Jan1-Dec31,  !- Name
    Office Activity Default Schedule,  !- Sunday Schedule:Day Name
    Office Activity Default Schedule,  !- Monday Schedule:Day Name
    Office Activity Default Schedule,  !- Tuesday Schedule:Day Name
    Office Activity Default Schedule,  !- Wednesday Schedule:Day Name
    Office Activity Default Schedule,  !- Thursday Schedule:Day Name
    Office Activity Default Schedule,  !- Friday Schedule:Day Name
    Office Activity Default Schedule,  !- Saturday Schedule:Day Name
    Office Activity Default Schedule,  !- Holiday Schedule:Day Name
    Office Activity Summer Design Day,  !- SummerDesignDay Schedule:Day Name
    Office Activity Winter Design Day,  !- WinterDesignDay Schedule:Day Name
    Office Activity Default Schedule,  !- CustomDay1 Schedule:Day Name
    Office Activity Default Schedule;  !- CustomDay2 Schedule:Day Name

Schedule:Week:Daily,
    Office Bldg Equip Week Rule - Jan1-Jan3,  !- Name
    Office Bldg Equip Default Schedule,  !- Sunday Schedule:Day Name
    Office Bldg Equip Default Schedule,  !- Monday Schedule:Day Name
    Office Bldg Equip Default Schedule,  !- Tuesday Schedule:Day Name
    Office Bldg Equip Default Schedule,  !- Wednesday Schedule:Day Name
    Office Bldg Equip Default Schedule,  !- Thursday Schedule:Day Name
    Office Bldg Equip Default Schedule,  !- Friday Schedule:Day Name
    Office Bldg Equip Rule 2 Day Schedule,  !- Saturday Schedule:Day Name
    Office Bldg Equip Default Schedule,  !- Holiday Schedule:Day Name
    Office Bldg Equip Summer Design Day,  !- SummerDesignDay Schedule:Day Name
    Office Bldg Equip Winter Design Day,  !- WinterDesignDay Schedule:Day Name
    Office Bldg Equip Default Schedule,  !- CustomDay1 Schedule:Day Name
    Office Bldg Equip Default Schedule;  !- CustomDay2 Schedule:Day Name

Schedule:Week:Daily,
    Office Bldg Equip Week Rule - Jan4-Dec31,  !- Name
    Office Bldg Equip Rule 1 Day Schedule,  !- Sunday Schedule:Day Name
    Office Bldg Equip Default Schedule,  !- Monday Schedule:Day Name
    Office Bldg Equip Default Schedule,  !- Tuesday Schedule:Day Name
    Office Bldg Equip Default Schedule,  !- Wednesday Schedule:Day Name
    Office Bldg Equip Default Schedule,  !- Thursday Schedule:Day Name
    Office Bldg Equip Default Schedule,  !- Friday Schedule:Day Name
    Office Bldg Equip Rule 2 Day Schedule,  !- Saturday Schedule:Day Name
    Office Bldg Equip Default Schedule,  !- Holiday Schedule:Day Name
    Office Bldg Equip Summer Design Day,  !- SummerDesignDay Schedule:Day Name
    Office Bldg Equip Winter Design Day,  !- WinterDesignDay Schedule:Day Name
    Office Bldg Equip Default Schedule,  !- CustomDay1 Schedule:Day Name
    Office Bldg Equip Default Schedule;  !- CustomDay2 Schedule:Day Name

Schedule:Week:Daily,
    Large Office Activity Week Rule - Jan1-Dec31,  !- Name
    Large Office Activity Default Schedule,  !- Sunday Schedule:Day Name
    Large Office Activity Default Schedule,  !- Monday Schedule:Day Name
    Large Office Activity Default Schedule,  !- Tuesday Schedule:Day Name
    Large Office Activity Default Schedule,  !- Wednesday Schedule:Day Name
    Large Office Activity Default Schedule,  !- Thursday Schedule:Day Name
    Large Office Activity Default Schedule,  !- Friday Schedule:Day Name
    Large Office Activity Default Schedule,  !- Saturday Schedule:Day Name
    Large Office Activity Default Schedule,  !- Holiday Schedule:Day Name
    Large Office Activity Summer Design Day,  !- SummerDesignDay Schedule:Day Name
    Large Office Activity Winter Design Day,  !- WinterDesignDay Schedule:Day Name
    Large Office Activity Default Schedule,  !- CustomDay1 Schedule:Day Name
    Large Office Activity Default Schedule;  !- CustomDay2 Schedule:Day Name

Schedule:Week:Daily,
    Large Office Bldg Equip Week Rule - Jan1-Jan3,  !- Name
    Large Office Bldg Equip Default Schedule,  !- Sunday Schedule:Day Name
    Large Office Bldg Equip Default Schedule,  !- Monday Schedule:Day Name
    Large Office Bldg Equip Default Schedule,  !- Tuesday Schedule:Day Name
    Large Office Bldg Equip Default Schedule,  !- Wednesday Schedule:Day Name
    Large Office Bldg Equip Default Schedule,  !- Thursday Schedule:Day Name
    Large Office Bldg Equip Default Schedule,  !- Friday Schedule:Day Name
    Large Office Bldg Equip Rule 2 Day Schedule,  !- Saturday Schedule:Day Name
    Large Office Bldg Equip Default Schedule,  !- Holiday Schedule:Day Name
    Large Office Bldg Equip Summer Design Day,  !- SummerDesignDay Schedule:Day Name
    Large Office Bldg Equip Winter Design Day,  !- WinterDesignDay Schedule:Day Name
    Large Office Bldg Equip Default Schedule,  !- CustomDay1 Schedule:Day Name
    Large Office Bldg Equip Default Schedule;  !- CustomDay2 Schedule:Day Name

Schedule:Week:Daily,
    Large Office Bldg Equip Week Rule - Jan4-Dec31,  !- Name
    Large Office Bldg Equip Rule 1 Day Schedule,  !- Sunday Schedule:Day Name
    Large Office Bldg Equip Default Schedule,  !- Monday Schedule:Day Name
    Large Office Bldg Equip Default Schedule,  !- Tuesday Schedule:Day Name
    Large Office Bldg Equip Default Schedule,  !- Wednesday Schedule:Day Name
    Large Office Bldg Equip Default Schedule,  !- Thursday Schedule:Day Name
    Large Office Bldg Equip Default Schedule,  !- Friday Schedule:Day Name
    Large Office Bldg Equip Rule 2 Day Schedule,  !- Saturday Schedule:Day Name
    Large Office Bldg Equip Default Schedule,  !- Holiday Schedule:Day Name
    Large Office Bldg Equip Summer Design Day,  !- SummerDesignDay Schedule:Day Name
    Large Office Bldg Equip Winter Design Day,  !- WinterDesignDay Schedule:Day Name
    Large Office Bldg Equip Default Schedule,  !- CustomDay1 Schedule:Day Name
    Large Office Bldg Equip Default Schedule;  !- CustomDay2 Schedule:Day Name

Schedule:Week:Daily,
    Large Office Bldg Light Week Rule - Jan1-Jan3,  !- Name
    Large Office Bldg Light Default Schedule,  !- Sunday Schedule:Day Name
    Large Office Bldg Light Default Schedule,  !- Monday Schedule:Day Name
    Large Office Bldg Light Default Schedule,  !- Tuesday Schedule:Day Name
    Large Office Bldg Light Default Schedule,  !- Wednesday Schedule:Day Name
    Large Office Bldg Light Default Schedule,  !- Thursday Schedule:Day Name
    Large Office Bldg Light Default Schedule,  !- Friday Schedule:Day Name
    Large Office Bldg Light Rule 2 Day Schedule,  !- Saturday Schedule:Day Name
    Large Office Bldg Light Default Schedule,  !- Holiday Schedule:Day Name
    Large Office Bldg Light Summer Design Day,  !- SummerDesignDay Schedule:Day Name
    Large Office Bldg Light Winter Design Day,  !- WinterDesignDay Schedule:Day Name
    Large Office Bldg Light Default Schedule,  !- CustomDay1 Schedule:Day Name
    Large Office Bldg Light Default Schedule;  !- CustomDay2 Schedule:Day Name

Schedule:Week:Daily,
    Large Office Bldg Light Week Rule - Jan4-Dec31,  !- Name
    Large Office Bldg Light Rule 1 Day Schedule,  !- Sunday Schedule:Day Name
    Large Office Bldg Light Default Schedule,  !- Monday Schedule:Day Name
    Large Office Bldg Light Default Schedule,  !- Tuesday Schedule:Day Name
    Large Office Bldg Light Default Schedule,  !- Wednesday Schedule:Day Name
    Large Office Bldg Light Default Schedule,  !- Thursday Schedule:Day Name
    Large Office Bldg Light Default Schedule,  !- Friday Schedule:Day Name
    Large Office Bldg Light Rule 2 Day Schedule,  !- Saturday Schedule:Day Name
    Large Office Bldg Light Default Schedule,  !- Holiday Schedule:Day Name
    Large Office Bldg Light Summer Design Day,  !- SummerDesignDay Schedule:Day Name
    Large Office Bldg Light Winter Design Day,  !- WinterDesignDay Schedule:Day Name
    Large Office Bldg Light Default Schedule,  !- CustomDay1 Schedule:Day Name
    Large Office Bldg Light Default Schedule;  !- CustomDay2 Schedule:Day Name

Schedule:Week:Daily,
    Large Office Bldg Occ Week Rule - Jan1-Jan3,  !- Name
    Large Office Bldg Occ Default Schedule,  !- Sunday Schedule:Day Name
    Large Office Bldg Occ Default Schedule,  !- Monday Schedule:Day Name
    Large Office Bldg Occ Default Schedule,  !- Tuesday Schedule:Day Name
    Large Office Bldg Occ Default Schedule,  !- Wednesday Schedule:Day Name
    Large Office Bldg Occ Default Schedule,  !- Thursday Schedule:Day Name
    Large Office Bldg Occ Default Schedule,  !- Friday Schedule:Day Name
    Large Office Bldg Occ Rule 2 Day Schedule,  !- Saturday Schedule:Day Name
    Large Office Bldg Occ Default Schedule,  !- Holiday Schedule:Day Name
    Large Office Bldg Occ Summer Design Day,  !- SummerDesignDay Schedule:Day Name
    Large Office Bldg Occ Winter Design Day,  !- WinterDesignDay Schedule:Day Name
    Large Office Bldg Occ Default Schedule,  !- CustomDay1 Schedule:Day Name
    Large Office Bldg Occ Default Schedule;  !- CustomDay2 Schedule:Day Name

Schedule:Week:Daily,
    Large Office Bldg Occ Week Rule - Jan4-Dec31,  !- Name
    Large Office Bldg Occ Rule 1 Day Schedule,  !- Sunday Schedule:Day Name
    Large Office Bldg Occ Default Schedule,  !- Monday Schedule:Day Name
    Large Office Bldg Occ Default Schedule,  !- Tuesday Schedule:Day Name
    Large Office Bldg Occ Default Schedule,  !- Wednesday Schedule:Day Name
    Large Office Bldg Occ Default Schedule,  !- Thursday Schedule:Day Name
    Large Office Bldg Occ Default Schedule,  !- Friday Schedule:Day Name
    Large Office Bldg Occ Rule 2 Day Schedule,  !- Saturday Schedule:Day Name
    Large Office Bldg Occ Default Schedule,  !- Holiday Schedule:Day Name
    Large Office Bldg Occ Summer Design Day,  !- SummerDesignDay Schedule:Day Name
    Large Office Bldg Occ Winter Design Day,  !- WinterDesignDay Schedule:Day Name
    Large Office Bldg Occ Default Schedule,  !- CustomDay1 Schedule:Day Name
    Large Office Bldg Occ Default Schedule;  !- CustomDay2 Schedule:Day Name

Schedule:Week:Daily,
    Large Office ClgSetp Week Rule - Jan1-Jan3,  !- Name
    Large Office ClgSetp Default Schedule,  !- Sunday Schedule:Day Name
    Large Office ClgSetp Default Schedule,  !- Monday Schedule:Day Name
    Large Office ClgSetp Default Schedule,  !- Tuesday Schedule:Day Name
    Large Office ClgSetp Default Schedule,  !- Wednesday Schedule:Day Name
    Large Office ClgSetp Default Schedule,  !- Thursday Schedule:Day Name
    Large Office ClgSetp Default Schedule,  !- Friday Schedule:Day Name
    Large Office ClgSetp Rule 2 Day Schedule,  !- Saturday Schedule:Day Name
    Large Office ClgSetp Default Schedule,  !- Holiday Schedule:Day Name
    Large Office ClgSetp Summer Design Day,  !- SummerDesignDay Schedule:Day Name
    Large Office ClgSetp Winter Design Day,  !- WinterDesignDay Schedule:Day Name
    Large Office ClgSetp Default Schedule,  !- CustomDay1 Schedule:Day Name
    Large Office ClgSetp Default Schedule;  !- CustomDay2 Schedule:Day Name

Schedule:Week:Daily,
    Large Office ClgSetp Week Rule - Jan4-Dec31,  !- Name
    Large Office ClgSetp Rule 1 Day Schedule,  !- Sunday Schedule:Day Name
    Large Office ClgSetp Default Schedule,  !- Monday Schedule:Day Name
    Large Office ClgSetp Default Schedule,  !- Tuesday Schedule:Day Name
    Large Office ClgSetp Default Schedule,  !- Wednesday Schedule:Day Name
    Large Office ClgSetp Default Schedule,  !- Thursday Schedule:Day Name
    Large Office ClgSetp Default Schedule,  !- Friday Schedule:Day Name
    Large Office ClgSetp Rule 2 Day Schedule,  !- Saturday Schedule:Day Name
    Large Office ClgSetp Default Schedule,  !- Holiday Schedule:Day Name
    Large Office ClgSetp Summer Design Day,  !- SummerDesignDay Schedule:Day Name
    Large Office ClgSetp Winter Design Day,  !- WinterDesignDay Schedule:Day Name
    Large Office ClgSetp Default Schedule,  !- CustomDay1 Schedule:Day Name
    Large Office ClgSetp Default Schedule;  !- CustomDay2 Schedule:Day Name

Schedule:Week:Daily,
    Large Office HtgSetp Week Rule - Jan1-Jan3,  !- Name
    Large Office HtgSetp Default Schedule,  !- Sunday Schedule:Day Name
    Large Office HtgSetp Default Schedule,  !- Monday Schedule:Day Name
    Large Office HtgSetp Default Schedule,  !- Tuesday Schedule:Day Name
    Large Office HtgSetp Default Schedule,  !- Wednesday Schedule:Day Name
    Large Office HtgSetp Default Schedule,  !- Thursday Schedule:Day Name
    Large Office HtgSetp Default Schedule,  !- Friday Schedule:Day Name
    Large Office HtgSetp Rule 2 Day Schedule,  !- Saturday Schedule:Day Name
    Large Office HtgSetp Default Schedule,  !- Holiday Schedule:Day Name
    Large Office HtgSetp Summer Design Day,  !- SummerDesignDay Schedule:Day Name
    Large Office HtgSetp Winter Design Day,  !- WinterDesignDay Schedule:Day Name
    Large Office HtgSetp Default Schedule,  !- CustomDay1 Schedule:Day Name
    Large Office HtgSetp Default Schedule;  !- CustomDay2 Schedule:Day Name

Schedule:Week:Daily,
    Large Office HtgSetp Week Rule - Jan4-Dec31,  !- Name
    Large Office HtgSetp Rule 1 Day Schedule,  !- Sunday Schedule:Day Name
    Large Office HtgSetp Default Schedule,  !- Monday Schedule:Day Name
    Large Office HtgSetp Default Schedule,  !- Tuesday Schedule:Day Name
    Large Office HtgSetp Default Schedule,  !- Wednesday Schedule:Day Name
    Large Office HtgSetp Default Schedule,  !- Thursday Schedule:Day Name
    Large Office HtgSetp Default Schedule,  !- Friday Schedule:Day Name
    Large Office HtgSetp Rule 2 Day Schedule,  !- Saturday Schedule:Day Name
    Large Office HtgSetp Default Schedule,  !- Holiday Schedule:Day Name
    Large Office HtgSetp Summer Design Day,  !- SummerDesignDay Schedule:Day Name
    Large Office HtgSetp Winter Design Day,  !- WinterDesignDay Schedule:Day Name
    Large Office HtgSetp Default Schedule,  !- CustomDay1 Schedule:Day Name
    Large Office HtgSetp Default Schedule;  !- CustomDay2 Schedule:Day Name

Schedule:Week:Daily,
    Large Office Infil Quarter On Week Rule - Jan1-Jan3,  !- Name
    Large Office Infil Quarter On Default Schedule,  !- Sunday Schedule:Day Name
    Large Office Infil Quarter On Default Schedule,  !- Monday Schedule:Day Name
    Large Office Infil Quarter On Default Schedule,  !- Tuesday Schedule:Day Name
    Large Office Infil Quarter On Default Schedule,  !- Wednesday Schedule:Day Name
    Large Office Infil Quarter On Default Schedule,  !- Thursday Schedule:Day Name
    Large Office Infil Quarter On Default Schedule,  !- Friday Schedule:Day Name
    Large Office Infil Quarter On Rule 2 Day Schedule,  !- Saturday Schedule:Day Name
    Large Office Infil Quarter On Default Schedule,  !- Holiday Schedule:Day Name
    Large Office Infil Quarter On Summer Design Day,  !- SummerDesignDay Schedule:Day Name
    Large Office Infil Quarter On Winter Design Day,  !- WinterDesignDay Schedule:Day Name
    Large Office Infil Quarter On Default Schedule,  !- CustomDay1 Schedule:Day Name
    Large Office Infil Quarter On Default Schedule;  !- CustomDay2 Schedule:Day Name

Schedule:Week:Daily,
    Large Office Infil Quarter On Week Rule - Jan4-Dec31,  !- Name
    Large Office Infil Quarter On Rule 1 Day Schedule,  !- Sunday Schedule:Day Name
    Large Office Infil Quarter On Default Schedule,  !- Monday Schedule:Day Name
    Large Office Infil Quarter On Default Schedule,  !- Tuesday Schedule:Day Name
    Large Office Infil Quarter On Default Schedule,  !- Wednesday Schedule:Day Name
    Large Office Infil Quarter On Default Schedule,  !- Thursday Schedule:Day Name
    Large Office Infil Quarter On Default Schedule,  !- Friday Schedule:Day Name
    Large Office Infil Quarter On Rule 2 Day Schedule,  !- Saturday Schedule:Day Name
    Large Office Infil Quarter On Default Schedule,  !- Holiday Schedule:Day Name
    Large Office Infil Quarter On Summer Design Day,  !- SummerDesignDay Schedule:Day Name
    Large Office Infil Quarter On Winter Design Day,  !- WinterDesignDay Schedule:Day Name
    Large Office Infil Quarter On Default Schedule,  !- CustomDay1 Schedule:Day Name
    Large Office Infil Quarter On Default Schedule;  !- CustomDay2 Schedule:Day Name

Schedule:Week:Daily,
    Medium Office Activity Week Rule - Jan1-Dec31,  !- Name
    Medium Office Activity Default Schedule,  !- Sunday Schedule:Day Name
    Medium Office Activity Default Schedule,  !- Monday Schedule:Day Name
    Medium Office Activity Default Schedule,  !- Tuesday Schedule:Day Name
    Medium Office Activity Default Schedule,  !- Wednesday Schedule:Day Name
    Medium Office Activity Default Schedule,  !- Thursday Schedule:Day Name
    Medium Office Activity Default Schedule,  !- Friday Schedule:Day Name
    Medium Office Activity Default Schedule,  !- Saturday Schedule:Day Name
    Medium Office Activity Default Schedule,  !- Holiday Schedule:Day Name
    Medium Office Activity Summer Design Day,  !- SummerDesignDay Schedule:Day Name
    Medium Office Activity Winter Design Day,  !- WinterDesignDay Schedule:Day Name
    Medium Office Activity Default Schedule,  !- CustomDay1 Schedule:Day Name
    Medium Office Activity Default Schedule;  !- CustomDay2 Schedule:Day Name

Schedule:Week:Daily,
    Medium Office Bldg Equip Week Rule - Jan1-Jan3,  !- Name
    Medium Office Bldg Equip Default Schedule,  !- Sunday Schedule:Day Name
    Medium Office Bldg Equip Default Schedule,  !- Monday Schedule:Day Name
    Medium Office Bldg Equip Default Schedule,  !- Tuesday Schedule:Day Name
    Medium Office Bldg Equip Default Schedule,  !- Wednesday Schedule:Day Name
    Medium Office Bldg Equip Default Schedule,  !- Thursday Schedule:Day Name
    Medium Office Bldg Equip Default Schedule,  !- Friday Schedule:Day Name
    Medium Office Bldg Equip Rule 2 Day Schedule,  !- Saturday Schedule:Day Name
    Medium Office Bldg Equip Default Schedule,  !- Holiday Schedule:Day Name
    Medium Office Bldg Equip Summer Design Day,  !- SummerDesignDay Schedule:Day Name
    Medium Office Bldg Equip Winter Design Day,  !- WinterDesignDay Schedule:Day Name
    Medium Office Bldg Equip Default Schedule,  !- CustomDay1 Schedule:Day Name
    Medium Office Bldg Equip Default Schedule;  !- CustomDay2 Schedule:Day Name

Schedule:Week:Daily,
    Medium Office Bldg Equip Week Rule - Jan4-Dec31,  !- Name
    Medium Office Bldg Equip Rule 1 Day Schedule,  !- Sunday Schedule:Day Name
    Medium Office Bldg Equip Default Schedule,  !- Monday Schedule:Day Name
    Medium Office Bldg Equip Default Schedule,  !- Tuesday Schedule:Day Name
    Medium Office Bldg Equip Default Schedule,  !- Wednesday Schedule:Day Name
    Medium Office Bldg Equip Default Schedule,  !- Thursday Schedule:Day Name
    Medium Office Bldg Equip Default Schedule,  !- Friday Schedule:Day Name
    Medium Office Bldg Equip Rule 2 Day Schedule,  !- Saturday Schedule:Day Name
    Medium Office Bldg Equip Default Schedule,  !- Holiday Schedule:Day Name
    Medium Office Bldg Equip Summer Design Day,  !- SummerDesignDay Schedule:Day Name
    Medium Office Bldg Equip Winter Design Day,  !- WinterDesignDay Schedule:Day Name
    Medium Office Bldg Equip Default Schedule,  !- CustomDay1 Schedule:Day Name
    Medium Office Bldg Equip Default Schedule;  !- CustomDay2 Schedule:Day Name

Schedule:Week:Daily,
    Medium Office Bldg Occ Week Rule - Jan1-Jan3,  !- Name
    Medium Office Bldg Occ Default Schedule,  !- Sunday Schedule:Day Name
    Medium Office Bldg Occ Default Schedule,  !- Monday Schedule:Day Name
    Medium Office Bldg Occ Default Schedule,  !- Tuesday Schedule:Day Name
    Medium Office Bldg Occ Default Schedule,  !- Wednesday Schedule:Day Name
    Medium Office Bldg Occ Default Schedule,  !- Thursday Schedule:Day Name
    Medium Office Bldg Occ Default Schedule,  !- Friday Schedule:Day Name
    Medium Office Bldg Occ Rule 2 Day Schedule,  !- Saturday Schedule:Day Name
    Medium Office Bldg Occ Default Schedule,  !- Holiday Schedule:Day Name
    Medium Office Bldg Occ Summer Design Day,  !- SummerDesignDay Schedule:Day Name
    Medium Office Bldg Occ Winter Design Day,  !- WinterDesignDay Schedule:Day Name
    Medium Office Bldg Occ Default Schedule,  !- CustomDay1 Schedule:Day Name
    Medium Office Bldg Occ Default Schedule;  !- CustomDay2 Schedule:Day Name

Schedule:Week:Daily,
    Medium Office Bldg Occ Week Rule - Jan4-Dec31,  !- Name
    Medium Office Bldg Occ Rule 1 Day Schedule,  !- Sunday Schedule:Day Name
    Medium Office Bldg Occ Default Schedule,  !- Monday Schedule:Day Name
    Medium Office Bldg Occ Default Schedule,  !- Tuesday Schedule:Day Name
    Medium Office Bldg Occ Default Schedule,  !- Wednesday Schedule:Day Name
    Medium Office Bldg Occ Default Schedule,  !- Thursday Schedule:Day Name
    Medium Office Bldg Occ Default Schedule,  !- Friday Schedule:Day Name
    Medium Office Bldg Occ Rule 2 Day Schedule,  !- Saturday Schedule:Day Name
    Medium Office Bldg Occ Default Schedule,  !- Holiday Schedule:Day Name
    Medium Office Bldg Occ Summer Design Day,  !- SummerDesignDay Schedule:Day Name
    Medium Office Bldg Occ Winter Design Day,  !- WinterDesignDay Schedule:Day Name
    Medium Office Bldg Occ Default Schedule,  !- CustomDay1 Schedule:Day Name
    Medium Office Bldg Occ Default Schedule;  !- CustomDay2 Schedule:Day Name

Schedule:Week:Daily,
    Medium Office ClgSetp Week Rule - Jan1-Jan3,  !- Name
    Medium Office ClgSetp Default Schedule,  !- Sunday Schedule:Day Name
    Medium Office ClgSetp Default Schedule,  !- Monday Schedule:Day Name
    Medium Office ClgSetp Default Schedule,  !- Tuesday Schedule:Day Name
    Medium Office ClgSetp Default Schedule,  !- Wednesday Schedule:Day Name
    Medium Office ClgSetp Default Schedule,  !- Thursday Schedule:Day Name
    Medium Office ClgSetp Default Schedule,  !- Friday Schedule:Day Name
    Medium Office ClgSetp Rule 2 Day Schedule,  !- Saturday Schedule:Day Name
    Medium Office ClgSetp Default Schedule,  !- Holiday Schedule:Day Name
    Medium Office ClgSetp Summer Design Day,  !- SummerDesignDay Schedule:Day Name
    Medium Office ClgSetp Winter Design Day,  !- WinterDesignDay Schedule:Day Name
    Medium Office ClgSetp Default Schedule,  !- CustomDay1 Schedule:Day Name
    Medium Office ClgSetp Default Schedule;  !- CustomDay2 Schedule:Day Name

Schedule:Week:Daily,
    Medium Office ClgSetp Week Rule - Jan4-Dec31,  !- Name
    Medium Office ClgSetp Rule 1 Day Schedule,  !- Sunday Schedule:Day Name
    Medium Office ClgSetp Default Schedule,  !- Monday Schedule:Day Name
    Medium Office ClgSetp Default Schedule,  !- Tuesday Schedule:Day Name
    Medium Office ClgSetp Default Schedule,  !- Wednesday Schedule:Day Name
    Medium Office ClgSetp Default Schedule,  !- Thursday Schedule:Day Name
    Medium Office ClgSetp Default Schedule,  !- Friday Schedule:Day Name
    Medium Office ClgSetp Rule 2 Day Schedule,  !- Saturday Schedule:Day Name
    Medium Office ClgSetp Default Schedule,  !- Holiday Schedule:Day Name
    Medium Office ClgSetp Summer Design Day,  !- SummerDesignDay Schedule:Day Name
    Medium Office ClgSetp Winter Design Day,  !- WinterDesignDay Schedule:Day Name
    Medium Office ClgSetp Default Schedule,  !- CustomDay1 Schedule:Day Name
    Medium Office ClgSetp Default Schedule;  !- CustomDay2 Schedule:Day Name

Schedule:Week:Daily,
    Medium Office HtgSetp Week Rule - Jan1-Jan3,  !- Name
    Medium Office HtgSetp Default Schedule,  !- Sunday Schedule:Day Name
    Medium Office HtgSetp Default Schedule,  !- Monday Schedule:Day Name
    Medium Office HtgSetp Default Schedule,  !- Tuesday Schedule:Day Name
    Medium Office HtgSetp Default Schedule,  !- Wednesday Schedule:Day Name
    Medium Office HtgSetp Default Schedule,  !- Thursday Schedule:Day Name
    Medium Office HtgSetp Default Schedule,  !- Friday Schedule:Day Name
    Medium Office HtgSetp Rule 2 Day Schedule,  !- Saturday Schedule:Day Name
    Medium Office HtgSetp Default Schedule,  !- Holiday Schedule:Day Name
    Medium Office HtgSetp Summer Design Day,  !- SummerDesignDay Schedule:Day Name
    Medium Office HtgSetp Winter Design Day,  !- WinterDesignDay Schedule:Day Name
    Medium Office HtgSetp Default Schedule,  !- CustomDay1 Schedule:Day Name
    Medium Office HtgSetp Default Schedule;  !- CustomDay2 Schedule:Day Name

Schedule:Week:Daily,
    Medium Office HtgSetp Week Rule - Jan4-Dec31,  !- Name
    Medium Office HtgSetp Rule 1 Day Schedule,  !- Sunday Schedule:Day Name
    Medium Office HtgSetp Default Schedule,  !- Monday Schedule:Day Name
    Medium Office HtgSetp Default Schedule,  !- Tuesday Schedule:Day Name
    Medium Office HtgSetp Default Schedule,  !- Wednesday Schedule:Day Name
    Medium Office HtgSetp Default Schedule,  !- Thursday Schedule:Day Name
    Medium Office HtgSetp Default Schedule,  !- Friday Schedule:Day Name
    Medium Office HtgSetp Rule 2 Day Schedule,  !- Saturday Schedule:Day Name
    Medium Office HtgSetp Default Schedule,  !- Holiday Schedule:Day Name
    Medium Office HtgSetp Summer Design Day,  !- SummerDesignDay Schedule:Day Name
    Medium Office HtgSetp Winter Design Day,  !- WinterDesignDay Schedule:Day Name
    Medium Office HtgSetp Default Schedule,  !- CustomDay1 Schedule:Day Name
    Medium Office HtgSetp Default Schedule;  !- CustomDay2 Schedule:Day Name

Schedule:Week:Daily,
    Medium Office Infil Quarter On Week Rule - Jan1-Jan3,  !- Name
    Medium Office Infil Quarter On Default Schedule,  !- Sunday Schedule:Day Name
    Medium Office Infil Quarter On Default Schedule,  !- Monday Schedule:Day Name
    Medium Office Infil Quarter On Default Schedule,  !- Tuesday Schedule:Day Name
    Medium Office Infil Quarter On Default Schedule,  !- Wednesday Schedule:Day Name
    Medium Office Infil Quarter On Default Schedule,  !- Thursday Schedule:Day Name
    Medium Office Infil Quarter On Default Schedule,  !- Friday Schedule:Day Name
    Medium Office Infil Quarter On Rule 2 Day Schedule,  !- Saturday Schedule:Day Name
    Medium Office Infil Quarter On Default Schedule,  !- Holiday Schedule:Day Name
    Medium Office Infil Quarter On Summer Design Day,  !- SummerDesignDay Schedule:Day Name
    Medium Office Infil Quarter On Winter Design Day,  !- WinterDesignDay Schedule:Day Name
    Medium Office Infil Quarter On Default Schedule,  !- CustomDay1 Schedule:Day Name
    Medium Office Infil Quarter On Default Schedule;  !- CustomDay2 Schedule:Day Name

Schedule:Week:Daily,
    Medium Office Infil Quarter On Week Rule - Jan4-Dec31,  !- Name
    Medium Office Infil Quarter On Rule 1 Day Schedule,  !- Sunday Schedule:Day Name
    Medium Office Infil Quarter On Default Schedule,  !- Monday Schedule:Day Name
    Medium Office Infil Quarter On Default Schedule,  !- Tuesday Schedule:Day Name
    Medium Office Infil Quarter On Default Schedule,  !- Wednesday Schedule:Day Name
    Medium Office Infil Quarter On Default Schedule,  !- Thursday Schedule:Day Name
    Medium Office Infil Quarter On Default Schedule,  !- Friday Schedule:Day Name
    Medium Office Infil Quarter On Rule 2 Day Schedule,  !- Saturday Schedule:Day Name
    Medium Office Infil Quarter On Default Schedule,  !- Holiday Schedule:Day Name
    Medium Office Infil Quarter On Summer Design Day,  !- SummerDesignDay Schedule:Day Name
    Medium Office Infil Quarter On Winter Design Day,  !- WinterDesignDay Schedule:Day Name
    Medium Office Infil Quarter On Default Schedule,  !- CustomDay1 Schedule:Day Name
    Medium Office Infil Quarter On Default Schedule;  !- CustomDay2 Schedule:Day Name

Schedule:Week:Daily,
    Office Infil Quarter On Week Rule - Jan1-Jan3,  !- Name
    Office Infil Quarter On Default Schedule,  !- Sunday Schedule:Day Name
    Office Infil Quarter On Default Schedule,  !- Monday Schedule:Day Name
    Office Infil Quarter On Default Schedule,  !- Tuesday Schedule:Day Name
    Office Infil Quarter On Default Schedule,  !- Wednesday Schedule:Day Name
    Office Infil Quarter On Default Schedule,  !- Thursday Schedule:Day Name
    Office Infil Quarter On Default Schedule,  !- Friday Schedule:Day Name
    Office Infil Quarter On Rule 2 Day Schedule,  !- Saturday Schedule:Day Name
    Office Infil Quarter On Default Schedule,  !- Holiday Schedule:Day Name
    Office Infil Quarter On Summer Design Day,  !- SummerDesignDay Schedule:Day Name
    Office Infil Quarter On Winter Design Day,  !- WinterDesignDay Schedule:Day Name
    Office Infil Quarter On Default Schedule,  !- CustomDay1 Schedule:Day Name
    Office Infil Quarter On Default Schedule;  !- CustomDay2 Schedule:Day Name

Schedule:Week:Daily,
    Office Infil Quarter On Week Rule - Jan4-Dec31,  !- Name
    Office Infil Quarter On Rule 1 Day Schedule,  !- Sunday Schedule:Day Name
    Office Infil Quarter On Default Schedule,  !- Monday Schedule:Day Name
    Office Infil Quarter On Default Schedule,  !- Tuesday Schedule:Day Name
    Office Infil Quarter On Default Schedule,  !- Wednesday Schedule:Day Name
    Office Infil Quarter On Default Schedule,  !- Thursday Schedule:Day Name
    Office Infil Quarter On Default Schedule,  !- Friday Schedule:Day Name
    Office Infil Quarter On Rule 2 Day Schedule,  !- Saturday Schedule:Day Name
    Office Infil Quarter On Default Schedule,  !- Holiday Schedule:Day Name
    Office Infil Quarter On Summer Design Day,  !- SummerDesignDay Schedule:Day Name
    Office Infil Quarter On Winter Design Day,  !- WinterDesignDay Schedule:Day Name
    Office Infil Quarter On Default Schedule,  !- CustomDay1 Schedule:Day Name
    Office Infil Quarter On Default Schedule;  !- CustomDay2 Schedule:Day Name

Schedule:Week:Daily,
    Office Misc Occ Week Rule - Jan1-Jan3,  !- Name
    Office Bldg Occ Default Schedule 1,  !- Sunday Schedule:Day Name
    Office Bldg Occ Default Schedule 1,  !- Monday Schedule:Day Name
    Office Bldg Occ Default Schedule 1,  !- Tuesday Schedule:Day Name
    Office Bldg Occ Default Schedule 1,  !- Wednesday Schedule:Day Name
    Office Bldg Occ Default Schedule 1,  !- Thursday Schedule:Day Name
    Office Bldg Occ Default Schedule 1,  !- Friday Schedule:Day Name
    Office Bldg Occ Rule 2 Day Schedule 1,  !- Saturday Schedule:Day Name
    Office Bldg Occ Default Schedule 1,  !- Holiday Schedule:Day Name
    Office Bldg Occ Summer Design Day 1,  !- SummerDesignDay Schedule:Day Name
    Office Bldg Occ Winter Design Day 1,  !- WinterDesignDay Schedule:Day Name
    Office Bldg Occ Default Schedule 1,  !- CustomDay1 Schedule:Day Name
    Office Bldg Occ Default Schedule 1;  !- CustomDay2 Schedule:Day Name

Schedule:Week:Daily,
    Office Misc Occ Week Rule - Jan4-Dec31,  !- Name
    Office Bldg Occ Rule 1 Day Schedule 1,  !- Sunday Schedule:Day Name
    Office Bldg Occ Default Schedule 1,  !- Monday Schedule:Day Name
    Office Bldg Occ Default Schedule 1,  !- Tuesday Schedule:Day Name
    Office Bldg Occ Default Schedule 1,  !- Wednesday Schedule:Day Name
    Office Bldg Occ Default Schedule 1,  !- Thursday Schedule:Day Name
    Office Bldg Occ Default Schedule 1,  !- Friday Schedule:Day Name
    Office Bldg Occ Rule 2 Day Schedule 1,  !- Saturday Schedule:Day Name
    Office Bldg Occ Default Schedule 1,  !- Holiday Schedule:Day Name
    Office Bldg Occ Summer Design Day 1,  !- SummerDesignDay Schedule:Day Name
    Office Bldg Occ Winter Design Day 1,  !- WinterDesignDay Schedule:Day Name
    Office Bldg Occ Default Schedule 1,  !- CustomDay1 Schedule:Day Name
    Office Bldg Occ Default Schedule 1;  !- CustomDay2 Schedule:Day Name

Schedule:Week:Daily,
    Small Office Activity Week Rule - Jan1-Dec31,  !- Name
    Small Office Activity Default Schedule,  !- Sunday Schedule:Day Name
    Small Office Activity Default Schedule,  !- Monday Schedule:Day Name
    Small Office Activity Default Schedule,  !- Tuesday Schedule:Day Name
    Small Office Activity Default Schedule,  !- Wednesday Schedule:Day Name
    Small Office Activity Default Schedule,  !- Thursday Schedule:Day Name
    Small Office Activity Default Schedule,  !- Friday Schedule:Day Name
    Small Office Activity Default Schedule,  !- Saturday Schedule:Day Name
    Small Office Activity Default Schedule,  !- Holiday Schedule:Day Name
    Small Office Activity Summer Design Day,  !- SummerDesignDay Schedule:Day Name
    Small Office Activity Winter Design Day,  !- WinterDesignDay Schedule:Day Name
    Small Office Activity Default Schedule,  !- CustomDay1 Schedule:Day Name
    Small Office Activity Default Schedule;  !- CustomDay2 Schedule:Day Name

Schedule:Week:Daily,
    Small Office Bldg Equip Week Rule - Jan1-Jan3,  !- Name
    Small Office Bldg Equip Default Schedule,  !- Sunday Schedule:Day Name
    Small Office Bldg Equip Default Schedule,  !- Monday Schedule:Day Name
    Small Office Bldg Equip Default Schedule,  !- Tuesday Schedule:Day Name
    Small Office Bldg Equip Default Schedule,  !- Wednesday Schedule:Day Name
    Small Office Bldg Equip Default Schedule,  !- Thursday Schedule:Day Name
    Small Office Bldg Equip Default Schedule,  !- Friday Schedule:Day Name
    Small Office Bldg Equip Rule 2 Day Schedule,  !- Saturday Schedule:Day Name
    Small Office Bldg Equip Default Schedule,  !- Holiday Schedule:Day Name
    Small Office Bldg Equip Summer Design Day,  !- SummerDesignDay Schedule:Day Name
    Small Office Bldg Equip Winter Design Day,  !- WinterDesignDay Schedule:Day Name
    Small Office Bldg Equip Default Schedule,  !- CustomDay1 Schedule:Day Name
    Small Office Bldg Equip Default Schedule;  !- CustomDay2 Schedule:Day Name

Schedule:Week:Daily,
    Small Office Bldg Equip Week Rule - Jan4-Dec31,  !- Name
    Small Office Bldg Equip Rule 1 Day Schedule,  !- Sunday Schedule:Day Name
    Small Office Bldg Equip Default Schedule,  !- Monday Schedule:Day Name
    Small Office Bldg Equip Default Schedule,  !- Tuesday Schedule:Day Name
    Small Office Bldg Equip Default Schedule,  !- Wednesday Schedule:Day Name
    Small Office Bldg Equip Default Schedule,  !- Thursday Schedule:Day Name
    Small Office Bldg Equip Default Schedule,  !- Friday Schedule:Day Name
    Small Office Bldg Equip Rule 2 Day Schedule,  !- Saturday Schedule:Day Name
    Small Office Bldg Equip Default Schedule,  !- Holiday Schedule:Day Name
    Small Office Bldg Equip Summer Design Day,  !- SummerDesignDay Schedule:Day Name
    Small Office Bldg Equip Winter Design Day,  !- WinterDesignDay Schedule:Day Name
    Small Office Bldg Equip Default Schedule,  !- CustomDay1 Schedule:Day Name
    Small Office Bldg Equip Default Schedule;  !- CustomDay2 Schedule:Day Name

Schedule:Week:Daily,
    Small Office Bldg Occ Week Rule - Jan1-Jan3,  !- Name
    Small Office Bldg Occ Default Schedule,  !- Sunday Schedule:Day Name
    Small Office Bldg Occ Default Schedule,  !- Monday Schedule:Day Name
    Small Office Bldg Occ Default Schedule,  !- Tuesday Schedule:Day Name
    Small Office Bldg Occ Default Schedule,  !- Wednesday Schedule:Day Name
    Small Office Bldg Occ Default Schedule,  !- Thursday Schedule:Day Name
    Small Office Bldg Occ Default Schedule,  !- Friday Schedule:Day Name
    Small Office Bldg Occ Rule 2 Day Schedule,  !- Saturday Schedule:Day Name
    Small Office Bldg Occ Default Schedule,  !- Holiday Schedule:Day Name
    Small Office Bldg Occ Summer Design Day,  !- SummerDesignDay Schedule:Day Name
    Small Office Bldg Occ Winter Design Day,  !- WinterDesignDay Schedule:Day Name
    Small Office Bldg Occ Default Schedule,  !- CustomDay1 Schedule:Day Name
    Small Office Bldg Occ Default Schedule;  !- CustomDay2 Schedule:Day Name

Schedule:Week:Daily,
    Small Office Bldg Occ Week Rule - Jan4-Dec31,  !- Name
    Small Office Bldg Occ Rule 1 Day Schedule,  !- Sunday Schedule:Day Name
    Small Office Bldg Occ Default Schedule,  !- Monday Schedule:Day Name
    Small Office Bldg Occ Default Schedule,  !- Tuesday Schedule:Day Name
    Small Office Bldg Occ Default Schedule,  !- Wednesday Schedule:Day Name
    Small Office Bldg Occ Default Schedule,  !- Thursday Schedule:Day Name
    Small Office Bldg Occ Default Schedule,  !- Friday Schedule:Day Name
    Small Office Bldg Occ Rule 2 Day Schedule,  !- Saturday Schedule:Day Name
    Small Office Bldg Occ Default Schedule,  !- Holiday Schedule:Day Name
    Small Office Bldg Occ Summer Design Day,  !- SummerDesignDay Schedule:Day Name
    Small Office Bldg Occ Winter Design Day,  !- WinterDesignDay Schedule:Day Name
    Small Office Bldg Occ Default Schedule,  !- CustomDay1 Schedule:Day Name
    Small Office Bldg Occ Default Schedule;  !- CustomDay2 Schedule:Day Name

Schedule:Week:Daily,
    Small Office ClgSetp Week Rule - Jan1-Jan3,  !- Name
    Small Office ClgSetp Default Schedule,  !- Sunday Schedule:Day Name
    Small Office ClgSetp Default Schedule,  !- Monday Schedule:Day Name
    Small Office ClgSetp Default Schedule,  !- Tuesday Schedule:Day Name
    Small Office ClgSetp Default Schedule,  !- Wednesday Schedule:Day Name
    Small Office ClgSetp Default Schedule,  !- Thursday Schedule:Day Name
    Small Office ClgSetp Default Schedule,  !- Friday Schedule:Day Name
    Small Office ClgSetp Rule 2 Day Schedule,  !- Saturday Schedule:Day Name
    Small Office ClgSetp Default Schedule,  !- Holiday Schedule:Day Name
    Small Office ClgSetp Summer Design Day,  !- SummerDesignDay Schedule:Day Name
    Small Office ClgSetp Winter Design Day,  !- WinterDesignDay Schedule:Day Name
    Small Office ClgSetp Default Schedule,  !- CustomDay1 Schedule:Day Name
    Small Office ClgSetp Default Schedule;  !- CustomDay2 Schedule:Day Name

Schedule:Week:Daily,
    Small Office ClgSetp Week Rule - Jan4-Dec31,  !- Name
    Small Office ClgSetp Rule 1 Day Schedule,  !- Sunday Schedule:Day Name
    Small Office ClgSetp Default Schedule,  !- Monday Schedule:Day Name
    Small Office ClgSetp Default Schedule,  !- Tuesday Schedule:Day Name
    Small Office ClgSetp Default Schedule,  !- Wednesday Schedule:Day Name
    Small Office ClgSetp Default Schedule,  !- Thursday Schedule:Day Name
    Small Office ClgSetp Default Schedule,  !- Friday Schedule:Day Name
    Small Office ClgSetp Rule 2 Day Schedule,  !- Saturday Schedule:Day Name
    Small Office ClgSetp Default Schedule,  !- Holiday Schedule:Day Name
    Small Office ClgSetp Summer Design Day,  !- SummerDesignDay Schedule:Day Name
    Small Office ClgSetp Winter Design Day,  !- WinterDesignDay Schedule:Day Name
    Small Office ClgSetp Default Schedule,  !- CustomDay1 Schedule:Day Name
    Small Office ClgSetp Default Schedule;  !- CustomDay2 Schedule:Day Name

Schedule:Week:Daily,
    Small Office HtgSetp Week Rule - Jan1-Jan3,  !- Name
    Small Office HtgSetp Default Schedule,  !- Sunday Schedule:Day Name
    Small Office HtgSetp Default Schedule,  !- Monday Schedule:Day Name
    Small Office HtgSetp Default Schedule,  !- Tuesday Schedule:Day Name
    Small Office HtgSetp Default Schedule,  !- Wednesday Schedule:Day Name
    Small Office HtgSetp Default Schedule,  !- Thursday Schedule:Day Name
    Small Office HtgSetp Default Schedule,  !- Friday Schedule:Day Name
    Small Office HtgSetp Rule 2 Day Schedule,  !- Saturday Schedule:Day Name
    Small Office HtgSetp Default Schedule,  !- Holiday Schedule:Day Name
    Small Office HtgSetp Summer Design Day,  !- SummerDesignDay Schedule:Day Name
    Small Office HtgSetp Winter Design Day,  !- WinterDesignDay Schedule:Day Name
    Small Office HtgSetp Default Schedule,  !- CustomDay1 Schedule:Day Name
    Small Office HtgSetp Default Schedule;  !- CustomDay2 Schedule:Day Name

Schedule:Week:Daily,
    Small Office HtgSetp Week Rule - Jan4-Dec31,  !- Name
    Small Office HtgSetp Rule 1 Day Schedule,  !- Sunday Schedule:Day Name
    Small Office HtgSetp Default Schedule,  !- Monday Schedule:Day Name
    Small Office HtgSetp Default Schedule,  !- Tuesday Schedule:Day Name
    Small Office HtgSetp Default Schedule,  !- Wednesday Schedule:Day Name
    Small Office HtgSetp Default Schedule,  !- Thursday Schedule:Day Name
    Small Office HtgSetp Default Schedule,  !- Friday Schedule:Day Name
    Small Office HtgSetp Rule 2 Day Schedule,  !- Saturday Schedule:Day Name
    Small Office HtgSetp Default Schedule,  !- Holiday Schedule:Day Name
    Small Office HtgSetp Summer Design Day,  !- SummerDesignDay Schedule:Day Name
    Small Office HtgSetp Winter Design Day,  !- WinterDesignDay Schedule:Day Name
    Small Office HtgSetp Default Schedule,  !- CustomDay1 Schedule:Day Name
    Small Office HtgSetp Default Schedule;  !- CustomDay2 Schedule:Day Name

Schedule:Week:Daily,
    Small Office Infil Quarter On Week Rule - Jan1-Jan3,  !- Name
    Small Office Infil Quarter On Default Schedule,  !- Sunday Schedule:Day Name
    Small Office Infil Quarter On Default Schedule,  !- Monday Schedule:Day Name
    Small Office Infil Quarter On Default Schedule,  !- Tuesday Schedule:Day Name
    Small Office Infil Quarter On Default Schedule,  !- Wednesday Schedule:Day Name
    Small Office Infil Quarter On Default Schedule,  !- Thursday Schedule:Day Name
    Small Office Infil Quarter On Default Schedule,  !- Friday Schedule:Day Name
    Small Office Infil Quarter On Rule 2 Day Schedule,  !- Saturday Schedule:Day Name
    Small Office Infil Quarter On Default Schedule,  !- Holiday Schedule:Day Name
    Small Office Infil Quarter On Summer Design Day,  !- SummerDesignDay Schedule:Day Name
    Small Office Infil Quarter On Winter Design Day,  !- WinterDesignDay Schedule:Day Name
    Small Office Infil Quarter On Default Schedule,  !- CustomDay1 Schedule:Day Name
    Small Office Infil Quarter On Default Schedule;  !- CustomDay2 Schedule:Day Name

Schedule:Week:Daily,
    Small Office Infil Quarter On Week Rule - Jan4-Dec31,  !- Name
    Small Office Infil Quarter On Rule 1 Day Schedule,  !- Sunday Schedule:Day Name
    Small Office Infil Quarter On Default Schedule,  !- Monday Schedule:Day Name
    Small Office Infil Quarter On Default Schedule,  !- Tuesday Schedule:Day Name
    Small Office Infil Quarter On Default Schedule,  !- Wednesday Schedule:Day Name
    Small Office Infil Quarter On Default Schedule,  !- Thursday Schedule:Day Name
    Small Office Infil Quarter On Default Schedule,  !- Friday Schedule:Day Name
    Small Office Infil Quarter On Rule 2 Day Schedule,  !- Saturday Schedule:Day Name
    Small Office Infil Quarter On Default Schedule,  !- Holiday Schedule:Day Name
    Small Office Infil Quarter On Summer Design Day,  !- SummerDesignDay Schedule:Day Name
    Small Office Infil Quarter On Winter Design Day,  !- WinterDesignDay Schedule:Day Name
    Small Office Infil Quarter On Default Schedule,  !- CustomDay1 Schedule:Day Name
    Small Office Infil Quarter On Default Schedule;  !- CustomDay2 Schedule:Day Name


!-   ===========  ALL OBJECTS IN CLASS: SCHEDULE:YEAR ===========

Schedule:Year,
    Office Bldg Light,       !- Name
    Fraction,                !- Schedule Type Limits Name
    Office Bldg Light Week Rule - Jan1-Jan3,  !- Schedule:Week Name 1
    1,                       !- Start Month 1
    1,                       !- Start Day 1
    1,                       !- End Month 1
    3,                       !- End Day 1
    Office Bldg Light Week Rule - Jan4-Dec31,  !- Schedule:Week Name 2
    1,                       !- Start Month 2
    4,                       !- Start Day 2
    12,                      !- End Month 2
    31;                      !- End Day 2

Schedule:Year,
    Office Work Occ,         !- Name
    Fraction,                !- Schedule Type Limits Name
    Office Work Occ Week Rule - Jan1-Jan3,  !- Schedule:Week Name 1
    1,                       !- Start Month 1
    1,                       !- Start Day 1
    1,                       !- End Month 1
    3,                       !- End Day 1
    Office Work Occ Week Rule - Jan4-Dec31,  !- Schedule:Week Name 2
    1,                       !- Start Month 2
    4,                       !- Start Day 2
    12,                      !- End Month 2
    31;                      !- End Day 2

Schedule:Year,
    Office Activity,         !- Name
    ActivityLevel,           !- Schedule Type Limits Name
    Office Activity Week Rule - Jan1-Dec31,  !- Schedule:Week Name 1
    1,                       !- Start Month 1
    1,                       !- Start Day 1
    12,                      !- End Month 1
    31;                      !- End Day 1

Schedule:Year,
    Office Bldg Equip,       !- Name
    Fraction,                !- Schedule Type Limits Name
    Office Bldg Equip Week Rule - Jan1-Jan3,  !- Schedule:Week Name 1
    1,                       !- Start Month 1
    1,                       !- Start Day 1
    1,                       !- End Month 1
    3,                       !- End Day 1
    Office Bldg Equip Week Rule - Jan4-Dec31,  !- Schedule:Week Name 2
    1,                       !- Start Month 2
    4,                       !- Start Day 2
    12,                      !- End Month 2
    31;                      !- End Day 2

Schedule:Year,
    Large Office Activity,   !- Name
    ActivityLevel 5,         !- Schedule Type Limits Name
    Large Office Activity Week Rule - Jan1-Dec31,  !- Schedule:Week Name 1
    1,                       !- Start Month 1
    1,                       !- Start Day 1
    12,                      !- End Month 1
    31;                      !- End Day 1

Schedule:Year,
    Large Office Bldg Equip, !- Name
    Fractional,              !- Schedule Type Limits Name
    Large Office Bldg Equip Week Rule - Jan1-Jan3,  !- Schedule:Week Name 1
    1,                       !- Start Month 1
    1,                       !- Start Day 1
    1,                       !- End Month 1
    3,                       !- End Day 1
    Large Office Bldg Equip Week Rule - Jan4-Dec31,  !- Schedule:Week Name 2
    1,                       !- Start Month 2
    4,                       !- Start Day 2
    12,                      !- End Month 2
    31;                      !- End Day 2

Schedule:Year,
    Large Office Bldg Light, !- Name
    Fractional,              !- Schedule Type Limits Name
    Large Office Bldg Light Week Rule - Jan1-Jan3,  !- Schedule:Week Name 1
    1,                       !- Start Month 1
    1,                       !- Start Day 1
    1,                       !- End Month 1
    3,                       !- End Day 1
    Large Office Bldg Light Week Rule - Jan4-Dec31,  !- Schedule:Week Name 2
    1,                       !- Start Month 2
    4,                       !- Start Day 2
    12,                      !- End Month 2
    31;                      !- End Day 2

Schedule:Year,
    Large Office Bldg Occ,   !- Name
    Fractional,              !- Schedule Type Limits Name
    Large Office Bldg Occ Week Rule - Jan1-Jan3,  !- Schedule:Week Name 1
    1,                       !- Start Month 1
    1,                       !- Start Day 1
    1,                       !- End Month 1
    3,                       !- End Day 1
    Large Office Bldg Occ Week Rule - Jan4-Dec31,  !- Schedule:Week Name 2
    1,                       !- Start Month 2
    4,                       !- Start Day 2
    12,                      !- End Month 2
    31;                      !- End Day 2

Schedule:Year,
    Large Office ClgSetp,    !- Name
    Temperature 5,           !- Schedule Type Limits Name
    Large Office ClgSetp Week Rule - Jan1-Jan3,  !- Schedule:Week Name 1
    1,                       !- Start Month 1
    1,                       !- Start Day 1
    1,                       !- End Month 1
    3,                       !- End Day 1
    Large Office ClgSetp Week Rule - Jan4-Dec31,  !- Schedule:Week Name 2
    1,                       !- Start Month 2
    4,                       !- Start Day 2
    12,                      !- End Month 2
    31;                      !- End Day 2

Schedule:Year,
    Large Office HtgSetp,    !- Name
    Temperature 3,           !- Schedule Type Limits Name
    Large Office HtgSetp Week Rule - Jan1-Jan3,  !- Schedule:Week Name 1
    1,                       !- Start Month 1
    1,                       !- Start Day 1
    1,                       !- End Month 1
    3,                       !- End Day 1
    Large Office HtgSetp Week Rule - Jan4-Dec31,  !- Schedule:Week Name 2
    1,                       !- Start Month 2
    4,                       !- Start Day 2
    12,                      !- End Month 2
    31;                      !- End Day 2

Schedule:Year,
    Large Office Infil Quarter On,  !- Name
    Fractional,              !- Schedule Type Limits Name
    Large Office Infil Quarter On Week Rule - Jan1-Jan3,  !- Schedule:Week Name 1
    1,                       !- Start Month 1
    1,                       !- Start Day 1
    1,                       !- End Month 1
    3,                       !- End Day 1
    Large Office Infil Quarter On Week Rule - Jan4-Dec31,  !- Schedule:Week Name 2
    1,                       !- Start Month 2
    4,                       !- Start Day 2
    12,                      !- End Month 2
    31;                      !- End Day 2

Schedule:Year,
    Medium Office Activity,  !- Name
    ActivityLevel 13,        !- Schedule Type Limits Name
    Medium Office Activity Week Rule - Jan1-Dec31,  !- Schedule:Week Name 1
    1,                       !- Start Month 1
    1,                       !- Start Day 1
    12,                      !- End Month 1
    31;                      !- End Day 1

Schedule:Year,
    Medium Office Bldg Equip,!- Name
    Fraction,                !- Schedule Type Limits Name
    Medium Office Bldg Equip Week Rule - Jan1-Jan3,  !- Schedule:Week Name 1
    1,                       !- Start Month 1
    1,                       !- Start Day 1
    1,                       !- End Month 1
    3,                       !- End Day 1
    Medium Office Bldg Equip Week Rule - Jan4-Dec31,  !- Schedule:Week Name 2
    1,                       !- Start Month 2
    4,                       !- Start Day 2
    12,                      !- End Month 2
    31;                      !- End Day 2

Schedule:Year,
    Medium Office Bldg Occ,  !- Name
    Fraction,                !- Schedule Type Limits Name
    Medium Office Bldg Occ Week Rule - Jan1-Jan3,  !- Schedule:Week Name 1
    1,                       !- Start Month 1
    1,                       !- Start Day 1
    1,                       !- End Month 1
    3,                       !- End Day 1
    Medium Office Bldg Occ Week Rule - Jan4-Dec31,  !- Schedule:Week Name 2
    1,                       !- Start Month 2
    4,                       !- Start Day 2
    12,                      !- End Month 2
    31;                      !- End Day 2

Schedule:Year,
    Medium Office ClgSetp,   !- Name
    Temperature 37,          !- Schedule Type Limits Name
    Medium Office ClgSetp Week Rule - Jan1-Jan3,  !- Schedule:Week Name 1
    1,                       !- Start Month 1
    1,                       !- Start Day 1
    1,                       !- End Month 1
    3,                       !- End Day 1
    Medium Office ClgSetp Week Rule - Jan4-Dec31,  !- Schedule:Week Name 2
    1,                       !- Start Month 2
    4,                       !- Start Day 2
    12,                      !- End Month 2
    31;                      !- End Day 2

Schedule:Year,
    Medium Office HtgSetp,   !- Name
    Temperature 36,          !- Schedule Type Limits Name
    Medium Office HtgSetp Week Rule - Jan1-Jan3,  !- Schedule:Week Name 1
    1,                       !- Start Month 1
    1,                       !- Start Day 1
    1,                       !- End Month 1
    3,                       !- End Day 1
    Medium Office HtgSetp Week Rule - Jan4-Dec31,  !- Schedule:Week Name 2
    1,                       !- Start Month 2
    4,                       !- Start Day 2
    12,                      !- End Month 2
    31;                      !- End Day 2

Schedule:Year,
    Medium Office Infil Quarter On,  !- Name
    Fraction,                !- Schedule Type Limits Name
    Medium Office Infil Quarter On Week Rule - Jan1-Jan3,  !- Schedule:Week Name 1
    1,                       !- Start Month 1
    1,                       !- Start Day 1
    1,                       !- End Month 1
    3,                       !- End Day 1
    Medium Office Infil Quarter On Week Rule - Jan4-Dec31,  !- Schedule:Week Name 2
    1,                       !- Start Month 2
    4,                       !- Start Day 2
    12,                      !- End Month 2
    31;                      !- End Day 2

Schedule:Year,
    Office Infil Quarter On, !- Name
    Fraction,                !- Schedule Type Limits Name
    Office Infil Quarter On Week Rule - Jan1-Jan3,  !- Schedule:Week Name 1
    1,                       !- Start Month 1
    1,                       !- Start Day 1
    1,                       !- End Month 1
    3,                       !- End Day 1
    Office Infil Quarter On Week Rule - Jan4-Dec31,  !- Schedule:Week Name 2
    1,                       !- Start Month 2
    4,                       !- Start Day 2
    12,                      !- End Month 2
    31;                      !- End Day 2

Schedule:Year,
    Office Misc Occ,         !- Name
    Fraction,                !- Schedule Type Limits Name
    Office Misc Occ Week Rule - Jan1-Jan3,  !- Schedule:Week Name 1
    1,                       !- Start Month 1
    1,                       !- Start Day 1
    1,                       !- End Month 1
    3,                       !- End Day 1
    Office Misc Occ Week Rule - Jan4-Dec31,  !- Schedule:Week Name 2
    1,                       !- Start Month 2
    4,                       !- Start Day 2
    12,                      !- End Month 2
    31;                      !- End Day 2

Schedule:Year,
    Small Office Activity,   !- Name
    ActivityLevel 12,        !- Schedule Type Limits Name
    Small Office Activity Week Rule - Jan1-Dec31,  !- Schedule:Week Name 1
    1,                       !- Start Month 1
    1,                       !- Start Day 1
    12,                      !- End Month 1
    31;                      !- End Day 1

Schedule:Year,
    Small Office Bldg Equip, !- Name
    Fractional,              !- Schedule Type Limits Name
    Small Office Bldg Equip Week Rule - Jan1-Jan3,  !- Schedule:Week Name 1
    1,                       !- Start Month 1
    1,                       !- Start Day 1
    1,                       !- End Month 1
    3,                       !- End Day 1
    Small Office Bldg Equip Week Rule - Jan4-Dec31,  !- Schedule:Week Name 2
    1,                       !- Start Month 2
    4,                       !- Start Day 2
    12,                      !- End Month 2
    31;                      !- End Day 2

Schedule:Year,
    Small Office Bldg Occ,   !- Name
    Fractional,              !- Schedule Type Limits Name
    Small Office Bldg Occ Week Rule - Jan1-Jan3,  !- Schedule:Week Name 1
    1,                       !- Start Month 1
    1,                       !- Start Day 1
    1,                       !- End Month 1
    3,                       !- End Day 1
    Small Office Bldg Occ Week Rule - Jan4-Dec31,  !- Schedule:Week Name 2
    1,                       !- Start Month 2
    4,                       !- Start Day 2
    12,                      !- End Month 2
    31;                      !- End Day 2

Schedule:Year,
    Small Office ClgSetp,    !- Name
    Temperature 4,           !- Schedule Type Limits Name
    Small Office ClgSetp Week Rule - Jan1-Jan3,  !- Schedule:Week Name 1
    1,                       !- Start Month 1
    1,                       !- Start Day 1
    1,                       !- End Month 1
    3,                       !- End Day 1
    Small Office ClgSetp Week Rule - Jan4-Dec31,  !- Schedule:Week Name 2
    1,                       !- Start Month 2
    4,                       !- Start Day 2
    12,                      !- End Month 2
    31;                      !- End Day 2

Schedule:Year,
    Small Office HtgSetp,    !- Name
    Temperature 11,          !- Schedule Type Limits Name
    Small Office HtgSetp Week Rule - Jan1-Jan3,  !- Schedule:Week Name 1
    1,                       !- Start Month 1
    1,                       !- Start Day 1
    1,                       !- End Month 1
    3,                       !- End Day 1
    Small Office HtgSetp Week Rule - Jan4-Dec31,  !- Schedule:Week Name 2
    1,                       !- Start Month 2
    4,                       !- Start Day 2
    12,                      !- End Month 2
    31;                      !- End Day 2

Schedule:Year,
    Small Office Infil Quarter On,  !- Name
    Fractional,              !- Schedule Type Limits Name
    Small Office Infil Quarter On Week Rule - Jan1-Jan3,  !- Schedule:Week Name 1
    1,                       !- Start Month 1
    1,                       !- Start Day 1
    1,                       !- End Month 1
    3,                       !- End Day 1
    Small Office Infil Quarter On Week Rule - Jan4-Dec31,  !- Schedule:Week Name 2
    1,                       !- Start Month 2
    4,                       !- Start Day 2
    12,                      !- End Month 2
    31;                      !- End Day 2


!-   ===========  ALL OBJECTS IN CLASS: SCHEDULE:COMPACT ===========

Schedule:Compact,
    light-woshi,             !- Name
    Fractional,              !- Schedule Type Limits Name
    Through: 12/31,          !- Field 1
    For: AllDays,            !- Field 2
    Until: 6:00,             !- Field 3
    0,                       !- Field 4
    Until: 7:00,             !- Field 5
    1,                       !- Field 6
    Until: 8:00,             !- Field 7
    .5,                      !- Field 8
    Until: 21:00,            !- Field 9
    0,                       !- Field 10
    Until: 23:00,            !- Field 11
    1,                       !- Field 12
    Until: 24:00,            !- Field 13
    0;                       !- Field 14

Schedule:Compact,
    light-keting,            !- Name
    Fractional,              !- Schedule Type Limits Name
    Through: 12/31,          !- Field 1
    For: AllDays,            !- Field 2
    Until: 6:00,             !- Field 3
    0,                       !- Field 4
    Until: 7:00,             !- Field 5
    .5,                      !- Field 6
    Until: 8:00,             !- Field 7
    1,                       !- Field 8
    Until: 19:00,            !- Field 9
    0,                       !- Field 10
    Until: 21:00,            !- Field 11
    1,                       !- Field 12
    Until: 22:00,            !- Field 13
    .5,                      !- Field 14
    Until: 24:00,            !- Field 15
    0;                       !- Field 16

Schedule:Compact,
    people-woshi,            !- Name
    Fractional,              !- Schedule Type Limits Name
    Through: 12/31,          !- Field 1
    For: AllDays,            !- Field 2
    Until: 7:00,             !- Field 3
    1,                       !- Field 4
    Until: 9:00,             !- Field 5
    .5,                      !- Field 6
    Until: 21:00,            !- Field 7
    0,                       !- Field 8
    Until: 22:00,            !- Field 9
    .5,                      !- Field 10
    Until: 24:00,            !- Field 11
    1;                       !- Field 12

Schedule:Compact,
    people-keting,           !- Name
    Fractional,              !- Schedule Type Limits Name
    Through: 12/31,          !- Field 1
    For: AllDays,            !- Field 2
    Until: 7:00,             !- Field 3
    0,                       !- Field 4
    Until: 9:00,             !- Field 5
    .5,                      !- Field 6
    Until:21:00,             !- Field 7
    1,                       !- Field 8
    Until: 22:00,            !- Field 9
    .5,                      !- Field 10
    Until: 24:00,            !- Field 11
    0;                       !- Field 12

Schedule:Compact,
    EQ-woshi,                !- Name
    Fractional,              !- Schedule Type Limits Name
    Through: 12/31,          !- Field 1
    For: AllDays,            !- Field 2
    Until: 7:00,             !- Field 3
    0,                       !- Field 4
    Until: 9:00,             !- Field 5
    1,                       !- Field 6
    Until: 21:00,            !- Field 7
    0,                       !- Field 8
    Until: 23:00,            !- Field 9
    1,                       !- Field 10
    Until: 24:00,            !- Field 11
    0;                       !- Field 12

Schedule:Compact,
    EQ-keting,               !- Name
    Fractional,              !- Schedule Type Limits Name
    Through: 12/31,          !- Field 1
    For: AllDays,            !- Field 2
    Until: 7:00,             !- Field 3
    0,                       !- Field 4
    Until: 8:00,             !- Field 5
    .5,                      !- Field 6
    Until: 10:00,            !- Field 7
    1,                       !- Field 8
    Until: 12:00,            !- Field 9
    .5,                      !- Field 10
    Until: 14:00,            !- Field 11
    1,                       !- Field 12
    Until: 18:00,            !- Field 13
    .5,                      !- Field 14
    Until: 21:00,            !- Field 15
    1,                       !- Field 16
    Until: 22:00,            !- Field 17
    .5,                      !- Field 18
    Until: 24:00,            !- Field 19
    0;                       !- Field 20


!-   ===========  ALL OBJECTS IN CLASS: SCHEDULE:CONSTANT ===========

Schedule:Constant,
    Always On Discrete,      !- Name
    Always On Discrete Limits,  !- Schedule Type Limits Name
    1;                       !- Hourly Value

Schedule:Constant,
    Always Off Discrete,     !- Name
    OnOff,                   !- Schedule Type Limits Name
    0;                       !- Hourly Value

Schedule:Constant,
    Always On Continuous,    !- Name
    Fractional 1,            !- Schedule Type Limits Name
    1;                       !- Hourly Value


!-   ===========  ALL OBJECTS IN CLASS: MATERIAL ===========

Material,
    100mm Normalweight Concrete,  !- Name
    MediumSmooth,            !- Roughness
    0.1016,                  !- Thickness {m}
    2.31,                    !- Conductivity {W/m-K}
    2322,                    !- Density {kg/m3}
    832,                     !- Specific Heat {J/kg-K}
    0.9,                     !- Thermal Absorptance
    0.7,                     !- Solar Absorptance
    0.7;                     !- Visible Absorptance

Material,
    25 mm Stucco,            !- Name
    Smooth,                  !- Roughness
    0.0254,                  !- Thickness {m}
    0.6918,                  !- Conductivity {W/m-K}
    1858,                    !- Density {kg/m3}
    837,                     !- Specific Heat {J/kg-K}
    0.9,                     !- Thermal Absorptance
    0.7,                     !- Solar Absorptance
    0.7;                     !- Visible Absorptance

Material,
    Slab Insulation,         !- Name
    MediumRough,             !- Roughness
    @slabInsulationThickness@,                       !- Thickness {m}
    0.05,                    !- Conductivity {W/m-K}
    154,                     !- Density {kg/m3}
    940,                     !- Specific Heat {J/kg-K}
    0.9,                     !- Thermal Absorptance
    0.5,                     !- Solar Absorptance
    0.5;                     !- Visible Absorptance

Material,
    Wall Insulation,         !- Name
    MediumRough,             !- Roughness
    @wallInsulationThickness@,                       !- Thickness {m}
    0.05,                    !- Conductivity {W/m-K}
    154,                     !- Density {kg/m3}
    940,                     !- Specific Heat {J/kg-K}
    0.9,                     !- Thermal Absorptance
    0.5,                     !- Solar Absorptance
    0.5;                     !- Visible Absorptance

Material,
    19mm gypsum board,       !- Name
    MediumSmooth,            !- Roughness
    0.019,                   !- Thickness {m}
    0.16,                    !- Conductivity {W/m-K}
    800,                     !- Density {kg/m3}
    1090,                    !- Specific Heat {J/kg-K}
    0.9,                     !- Thermal Absorptance
    0.4,                     !- Solar Absorptance
    0.4;                     !- Visible Absorptance

Material,
    Timber_Door_44mm,        !- Name
    Smooth,                  !- Roughness
    0.044,                   !- Thickness {m} (standard UK solid timber door)
    0.14,                    !- Conductivity {W/m-K}
    600,                     !- Density {kg/m3}
    1630,                    !- Specific Heat {J/kg-K}
    0.9,                     !- Thermal Absorptance
    0.6,                     !- Solar Absorptance
    0.6;                     !- Visible Absorptance

Material,
    Roof Insulation,         !- Name
    MediumRough,             !- Roughness
    @roofInsulationThickness@,                       !- Thickness {m}
    0.05,                    !- Conductivity {W/m-K}
    154,                     !- Density {kg/m3}
    940,                     !- Specific Heat {J/kg-K}
    0.9,                     !- Thermal Absorptance
    0.7,                     !- Solar Absorptance
    0.7;                     !- Visible Absorptance

Material,
    Roof Tiles,              !- Name
    VeryRough,               !- Roughness
    0.020,                   !- Thickness {m}
    0.840,                   !- Conductivity {W/m-K}
    1900,                    !- Density {kg/m3}
    800,                     !- Specific Heat {J/kg-K}
    0.9,                     !- Thermal Absorptance
    @roofAbsorptance@,       !- Solar Absorptance
    0.7;                     !- Visible Absorptance

Material,
    25mm Plywood,            !- Name
    VeryRough,               !- Roughness
    0.025,                   !- Thickness {m}
    0.150,                   !- Conductivity {W/m-K}
    700,                     !- Density {kg/m3}
    1400,                    !- Specific Heat {J/kg-K}
    0.9,                     !- Thermal Absorptance
    0.7,                     !- Solar Absorptance
    0.7;                     !- Visible Absorptance

Material,
    200mm Brick Masonry,     !- Name
    VeryRough,               !- Roughness
    0.2,                     !- Thickness {m}
    1,                       !- Conductivity {W/m-K}
    1700,                    !- Density {kg/m3}
    1000,                    !- Specific Heat {J/kg-K}
    0.9,                     !- Thermal Absorptance
    0.7,                     !- Solar Absorptance
    0.7;                     !- Visible Absorptance

Material,
    100mm Brick Masonry,     !- Name
    VeryRough,               !- Roughness
    0.1,                     !- Thickness {m}
    1,                       !- Conductivity {W/m-K}
    1700,                    !- Density {kg/m3}
    1000,                    !- Specific Heat {J/kg-K}
    0.9,                     !- Thermal Absorptance
    0.7,                     !- Solar Absorptance
    0.7;                     !- Visible Absorptance

Material,
    RC_Slab_100mm,            !- Name
    MediumRough,             !- Roughness
    0.1,                     !- Thickness {m}
    1.74,                    !- Conductivity {W/m-K}
    2500,                    !- Density {kg/m3}
    920,                     !- Specific Heat {J/kg-K}
    0.9,                     !- Thermal Absorptance
    0.7,                     !- Solar Absorptance
    0.7;                     !- Visible Absorptance


!-   ===========  ALL OBJECTS IN CLASS: WINDOWMATERIAL:SIMPLEGLAZINGSYSTEM ===========

WindowMaterial:SimpleGlazingSystem,
    Window,                  !- Name
    @u_windows@,             !- U-Factor {W/m2-K}
    @g_value@,               !- Solar Heat Gain Coefficient
    0.7;                     !- Visible Transmittance


!-   ===========  ALL OBJECTS IN CLASS: WINDOWMATERIAL:BLIND ===========

WindowMaterial:Blind,
    Window Material Blind 1, !- Name
    Horizontal,              !- Slat Orientation
    0.025,                   !- Slat Width {m}
    0.01875,                 !- Slat Separation {m}
    0.001,                   !- Slat Thickness {m}
    45,                      !- Slat Angle {deg}
    221,                     !- Slat Conductivity {W/m-K}
    0,                       !- Slat Beam Solar Transmittance
    0.5,                     !- Front Side Slat Beam Solar Reflectance
    0.5,                     !- Back Side Slat Beam Solar Reflectance
    0,                       !- Slat Diffuse Solar Transmittance
    0.5,                     !- Front Side Slat Diffuse Solar Reflectance
    0.5,                     !- Back Side Slat Diffuse Solar Reflectance
    0,                       !- Slat Beam Visible Transmittance
    0.5,                     !- Front Side Slat Beam Visible Reflectance
    0.5,                     !- Back Side Slat Beam Visible Reflectance
    0,                       !- Slat Diffuse Visible Transmittance
    0.5,                     !- Front Side Slat Diffuse Visible Reflectance
    0.5,                     !- Back Side Slat Diffuse Visible Reflectance
    0,                       !- Slat Infrared Hemispherical Transmittance
    0.9,                     !- Front Side Slat Infrared Hemispherical Emissivity
    0.9,                     !- Back Side Slat Infrared Hemispherical Emissivity
    0.05,                    !- Blind to Glass Distance {m}
    0.5,                     !- Blind Top Opening Multiplier
    0.5,                     !- Blind Bottom Opening Multiplier
    0.5,                     !- Blind Left Side Opening Multiplier
    0.5,                     !- Blind Right Side Opening Multiplier
    0,                       !- Minimum Slat Angle {deg}
    180;                     !- Maximum Slat Angle {deg}


!-   ===========  ALL OBJECTS IN CLASS: WINDOWMATERIAL:SHADE ===========

WindowMaterial:Shade,
    Shade_Openness_0.05,     !- Name
    0.4,                     !- Solar Transmittance {dimensionless}
    0.5,                     !- Solar Reflectance {dimensionless}
    0.4,                     !- Visible Transmittance {dimensionless}
    0.5,                     !- Visible Reflectance {dimensionless}
    0.9,                     !- Infrared Hemispherical Emissivity {dimensionless}
    0.0,                     !- Infrared Transmittance {dimensionless}
    0.001,                   !- Thickness {m}
    0.9,                     !- Conductivity {W/m-K}
    0.05,                    !- Shade to Glass Distance {m}
    0.5,                     !- Top Opening Multiplier
    0.5,                     !- Bottom Opening Multiplier
    0.5,                     !- Left-Side Opening Multiplier
    0.5,                     !- Right-Side Opening Multiplier
    0.05;                    !- Airflow Permeability


!-   ===========  ALL OBJECTS IN CLASS: CONSTRUCTION ===========

Construction,
    ASHRAE 189.1-2009 ExtRoof IEAD ClimateZone 2-5,  !- Name
    Roof Tiles,              !- Outside Layer
    25mm Plywood;            !- Layer 2 (cold loft: no insulation on sloped roof)

Construction,
    ASHRAE 189.1-2009 ExtWall Mass ClimateZone 5,  !- Name
    25 mm Stucco,            !- Outside Layer
    200mm Brick Masonry,     !- Layer 2
    Wall Insulation,         !- Layer 3
    19mm gypsum board;       !- Layer 4

Construction,
    ASHRAE 189.1-2009 ExtWindow ClimateZone 4-5,  !- Name
    Window;                  !- Outside Layer

Construction,
    ExtSlabCarpet 4in ClimateZone 1-8,  !- Name
    Slab Insulation,         !- Outside Layer
    100mm Normalweight Concrete;  !- Layer 2

Construction,
    Interior Ceiling,        !- Name
    Roof Insulation,         !- Outside Layer (loft side — mineral wool laid on top of joists)
    RC_Slab_100mm;            !- Layer 2 (plasterboard/concrete, bedroom side)

Construction,
    Interior Wall,           !- Name
    19mm gypsum board,       !- Outside Layer
    100mm Normalweight Concrete,  !- Layer 2
    19mm gypsum board;       !- Layer 3

Construction,
    Exterior Door,           !- Name
    Timber_Door_44mm;        !- Outside Layer (solid timber door, typical UK)

Construction,
    Interior Floor,          !- Name
    RC_Slab_100mm,           !- Outside Layer (loft side)
    Roof Insulation;         !- Layer 2 (mirror of Interior Ceiling)


!-   ===========  ALL OBJECTS IN CLASS: CONSTRUCTION:AIRBOUNDARY ===========

Construction:AirBoundary,
    Air Wall,                !- Name
    None,                    !- Air Exchange Method
    0,                       !- Simple Mixing Air Changes per Hour {1/hr}
    ;                        !- Simple Mixing Schedule Name


!-   ===========  ALL OBJECTS IN CLASS: GLOBALGEOMETRYRULES ===========

GlobalGeometryRules,
    UpperLeftCorner,         !- Starting Vertex Position
    Counterclockwise,        !- Vertex Entry Direction
    Relative,                !- Coordinate System
    Relative,                !- Daylighting Reference Point Coordinate System
    Relative;                !- Rectangular Surface Coordinate System


!-   ===========  ALL OBJECTS IN CLASS: SPACE ===========

Space,
    Space 1,                 !- Name
    Thermal Zone: Space 1,   !- Zone Name
    ,                        !- Ceiling Height {m}
    ,                        !- Volume {m3}
    ,                        !- Floor Area {m2}
    189.1-2009 - Office - OpenOffice - CZ4-8;  !- Space Type

Space,
    Space 101,               !- Name
    Thermal Zone: Space 101, !- Zone Name
    ,                        !- Ceiling Height {m}
    ,                        !- Volume {m3}
    ,                        !- Floor Area {m2}
    189.1-2009 - Office - OpenOffice - CZ4-8;  !- Space Type

Space,
    Space 102,               !- Name
    Thermal Zone: Space 102, !- Zone Name
    ,                        !- Ceiling Height {m}
    ,                        !- Volume {m3}
    ,                        !- Floor Area {m2}
    189.1-2009 - Office - OpenOffice - CZ4-8;  !- Space Type


!-   ===========  ALL OBJECTS IN CLASS: SPACELIST ===========

SpaceList,
    189.1-2009 - Office - OpenOffice - CZ4-8,  !- Name
    Space 101,               !- Space 1 Name
    Space 102,               !- Space 2 Name
    Space 1;                 !- Space 3 Name


!-   ===========  ALL OBJECTS IN CLASS: ZONE ===========

Zone,
    Thermal Zone: Space 1,   !- Name
    ,                        !- Direction of Relative North {deg}
    0,                       !- X Origin {m}
    @length@,                       !- Y Origin {m}
    @2height@,                     !- Z Origin {m}
    ,                        !- Type
    1,                       !- Multiplier
    ,                        !- Ceiling Height {m}
    ,                        !- Volume {m3}
    ,                        !- Floor Area {m2}
    ,                        !- Zone Inside Convection Algorithm
    ,                        !- Zone Outside Convection Algorithm
    Yes;                     !- Part of Total Floor Area

Zone,
    Thermal Zone: Space 101, !- Name
    ,                        !- Direction of Relative North {deg}
    0,                       !- X Origin {m}
    0,                       !- Y Origin {m}
    0,                       !- Z Origin {m}
    ,                        !- Type
    1,                       !- Multiplier
    ,                        !- Ceiling Height {m}
    ,                        !- Volume {m3}
    ,                        !- Floor Area {m2}
    ,                        !- Zone Inside Convection Algorithm
    ,                        !- Zone Outside Convection Algorithm
    Yes;                     !- Part of Total Floor Area

Zone,
    Thermal Zone: Space 102, !- Name
    -0,                      !- Direction of Relative North {deg}
    0,                       !- X Origin {m}
    0,                       !- Y Origin {m}
    @height@,                     !- Z Origin {m}
    ,                        !- Type
    1,                       !- Multiplier
    ,                        !- Ceiling Height {m}
    ,                        !- Volume {m3}
    ,                        !- Floor Area {m2}
    ,                        !- Zone Inside Convection Algorithm
    ,                        !- Zone Outside Convection Algorithm
    Yes;                     !- Part of Total Floor Area


!-   ===========  ALL OBJECTS IN CLASS: BUILDINGSURFACE:DETAILED ===========

BuildingSurface:Detailed,
    Surface 13,              !- Name
    Floor,                   !- Surface Type
    Interior Floor,          !- Construction Name
    Thermal Zone: Space 1,   !- Zone Name
    Space 1,                 !- Space Name
    Surface,                 !- Outside Boundary Condition
    Surface 12,              !- Outside Boundary Condition Object
    NoSun,                   !- Sun Exposure
    NoWind,                  !- Wind Exposure
    ,                        !- View Factor to Ground
    ,                        !- Number of Vertices
    @width@,                      !- Vertex 1 X-coordinate {m}
    0,                       !- Vertex 1 Y-coordinate {m}
    0,                       !- Vertex 1 Z-coordinate {m}
    @width@,                      !- Vertex 2 X-coordinate {m}
    -@length@,                      !- Vertex 2 Y-coordinate {m}
    0,                       !- Vertex 2 Z-coordinate {m}
    0,                       !- Vertex 3 X-coordinate {m}
    -@length@,                      !- Vertex 3 Y-coordinate {m}
    0,                       !- Vertex 3 Z-coordinate {m}
    0,                       !- Vertex 4 X-coordinate {m}
    0,                       !- Vertex 4 Y-coordinate {m}
    0;                       !- Vertex 4 Z-coordinate {m}

BuildingSurface:Detailed,
    Surface 14,              !- Name
    Wall,                    !- Surface Type
    ASHRAE 189.1-2009 ExtWall Mass ClimateZone 5,  !- Construction Name
    Thermal Zone: Space 1,   !- Zone Name
    Space 1,                 !- Space Name
    Outdoors,                !- Outside Boundary Condition
    ,                        !- Outside Boundary Condition Object
    SunExposed,              !- Sun Exposure
    WindExposed,             !- Wind Exposure
    ,                        !- View Factor to Ground
    ,                        !- Number of Vertices
    0,                       !- Vertex 1 X-coordinate {m}
    -@length/2@,                      !- Vertex 1 Y-coordinate {m}
    2,                       !- Vertex 1 Z-coordinate {m}
    0,                       !- Vertex 2 X-coordinate {m}
    0,                       !- Vertex 2 Y-coordinate {m}
    0,                       !- Vertex 2 Z-coordinate {m}
    0,                       !- Vertex 3 X-coordinate {m}
    -@length@,                      !- Vertex 3 Y-coordinate {m}
    0;                       !- Vertex 3 Z-coordinate {m}

BuildingSurface:Detailed,
    Surface 15,              !- Name
    Roof,                    !- Surface Type
    ASHRAE 189.1-2009 ExtRoof IEAD ClimateZone 2-5,  !- Construction Name
    Thermal Zone: Space 1,   !- Zone Name
    Space 1,                 !- Space Name
    Outdoors,                !- Outside Boundary Condition
    ,                        !- Outside Boundary Condition Object
    SunExposed,              !- Sun Exposure
    WindExposed,             !- Wind Exposure
    ,                        !- View Factor to Ground
    ,                        !- Number of Vertices
    0,                       !- Vertex 1 X-coordinate {m}
    -@length/2@,                      !- Vertex 3 Y-coordinate {m}
    2,                       !- Vertex 1 Z-coordinate {m}
    0,                       !- Vertex 2 X-coordinate {m}
    -@length@,                      !- Vertex 2 Y-coordinate {m}
    0,                       !- Vertex 2 Z-coordinate {m}
    @width@,                      !- Vertex 3 X-coordinate {m}
    -@length@,                      !- Vertex 3 Y-coordinate {m}
    0,                       !- Vertex 3 Z-coordinate {m}
    @width@,                      !- Vertex 4 X-coordinate {m}
    -@length/2@,                    !- Vertex 4 Y-coordinate {m}
    2;                       !- Vertex 4 Z-coordinate {m}

BuildingSurface:Detailed,
    Surface 16,              !- Name
    Wall,                    !- Surface Type
    ASHRAE 189.1-2009 ExtWall Mass ClimateZone 5,  !- Construction Name
    Thermal Zone: Space 1,   !- Zone Name
    Space 1,                 !- Space Name
    Outdoors,                !- Outside Boundary Condition
    ,                        !- Outside Boundary Condition Object
    SunExposed,              !- Sun Exposure
    WindExposed,             !- Wind Exposure
    ,                        !- View Factor to Ground
    ,                        !- Number of Vertices
    @width@,                      !- Vertex 1 X-coordinate {m}
    -@length/2@,                      !- Vertex 3 Y-coordinate {m}
    2,                       !- Vertex 1 Z-coordinate {m}
    @width@,                      !- Vertex 2 X-coordinate {m}
    -@length@,                      !- Vertex 2 Y-coordinate {m}
    0,                       !- Vertex 2 Z-coordinate {m}
    @width@,                      !- Vertex 3 X-coordinate {m}
    0,                       !- Vertex 3 Y-coordinate {m}
    0;                       !- Vertex 3 Z-coordinate {m}

BuildingSurface:Detailed,
    Surface 17,              !- Name
    Roof,                    !- Surface Type
    ASHRAE 189.1-2009 ExtRoof IEAD ClimateZone 2-5,  !- Construction Name
    Thermal Zone: Space 1,   !- Zone Name
    Space 1,                 !- Space Name
    Outdoors,                !- Outside Boundary Condition
    ,                        !- Outside Boundary Condition Object
    SunExposed,              !- Sun Exposure
    WindExposed,             !- Wind Exposure
    ,                        !- View Factor to Ground
    ,                        !- Number of Vertices
    @width@,                      !- Vertex 1 X-coordinate {m}
    -@length/2@,                      !- Vertex 3 Y-coordinate {m}
    2,                       !- Vertex 1 Z-coordinate {m}
    @width@,                      !- Vertex 2 X-coordinate {m}
    -5.63718110693485e-17,   !- Vertex 2 Y-coordinate {m}
    -7.04647638366857e-17,   !- Vertex 2 Z-coordinate {m}
    0,                       !- Vertex 3 X-coordinate {m}
    -5.63718110693485e-17,   !- Vertex 3 Y-coordinate {m}
    -7.04647638366857e-17,   !- Vertex 3 Z-coordinate {m}
    0,                       !- Vertex 4 X-coordinate {m}
    -@length/2@,                    !- Vertex 4 Y-coordinate {m}
    2;                       !- Vertex 4 Z-coordinate {m}

BuildingSurface:Detailed,
    Surface 1,               !- Name
    Floor,                   !- Surface Type
    ExtSlabCarpet 4in ClimateZone 1-8,  !- Construction Name
    Thermal Zone: Space 101, !- Zone Name
    Space 101,               !- Space Name
    Foundation,              !- Outside Boundary Condition
    Foundation Kiva,         !- Outside Boundary Condition Object
    NoSun,                   !- Sun Exposure
    NoWind,                  !- Wind Exposure
    ,                        !- View Factor to Ground
    ,                        !- Number of Vertices
    @width@,                      !- Vertex 1 X-coordinate {m}
    @length@,                       !- Vertex 1 Y-coordinate {m}
    0,                       !- Vertex 1 Z-coordinate {m}
    @width@,                      !- Vertex 2 X-coordinate {m}
    0,                       !- Vertex 2 Y-coordinate {m}
    0,                       !- Vertex 2 Z-coordinate {m}
    0,                       !- Vertex 3 X-coordinate {m}
    0,                       !- Vertex 3 Y-coordinate {m}
    0,                       !- Vertex 3 Z-coordinate {m}
    0,                       !- Vertex 4 X-coordinate {m}
    @length@,                       !- Vertex 4 Y-coordinate {m}
    0;                       !- Vertex 4 Z-coordinate {m}

BuildingSurface:Detailed,
    Surface 2,               !- Name
    Wall,                    !- Surface Type
    ASHRAE 189.1-2009 ExtWall Mass ClimateZone 5,  !- Construction Name
    Thermal Zone: Space 101, !- Zone Name
    Space 101,               !- Space Name
    Outdoors,                !- Outside Boundary Condition
    ,                        !- Outside Boundary Condition Object
    SunExposed,              !- Sun Exposure
    WindExposed,             !- Wind Exposure
    ,                        !- View Factor to Ground
    ,                        !- Number of Vertices
    0,                       !- Vertex 1 X-coordinate {m}
    @length@,                       !- Vertex 1 Y-coordinate {m}
    @height@,                     !- Vertex 1 Z-coordinate {m}
    0,                       !- Vertex 2 X-coordinate {m}
    @length@,                       !- Vertex 2 Y-coordinate {m}
    0,                       !- Vertex 2 Z-coordinate {m}
    0,                       !- Vertex 3 X-coordinate {m}
    0,                       !- Vertex 3 Y-coordinate {m}
    0,                       !- Vertex 3 Z-coordinate {m}
    0,                       !- Vertex 4 X-coordinate {m}
    0,                       !- Vertex 4 Y-coordinate {m}
    @height@;                     !- Vertex 4 Z-coordinate {m}

BuildingSurface:Detailed,
    Surface 3,               !- Name
    Wall,                    !- Surface Type
    ASHRAE 189.1-2009 ExtWall Mass ClimateZone 5,  !- Construction Name
    Thermal Zone: Space 101, !- Zone Name
    Space 101,               !- Space Name
    Outdoors,                !- Outside Boundary Condition
    ,                        !- Outside Boundary Condition Object
    SunExposed,              !- Sun Exposure
    WindExposed,             !- Wind Exposure
    ,                        !- View Factor to Ground
    ,                        !- Number of Vertices
    @width@,                      !- Vertex 1 X-coordinate {m}
    @length@,                       !- Vertex 1 Y-coordinate {m}
    @height@,                     !- Vertex 1 Z-coordinate {m}
    @width@,                      !- Vertex 2 X-coordinate {m}
    @length@,                       !- Vertex 2 Y-coordinate {m}
    0,                       !- Vertex 2 Z-coordinate {m}
    0,                       !- Vertex 3 X-coordinate {m}
    @length@,                       !- Vertex 3 Y-coordinate {m}
    0,                       !- Vertex 3 Z-coordinate {m}
    0,                       !- Vertex 4 X-coordinate {m}
    @length@,                       !- Vertex 4 Y-coordinate {m}
    @height@;                     !- Vertex 4 Z-coordinate {m}

BuildingSurface:Detailed,
    Surface 4,               !- Name
    Wall,                    !- Surface Type
    ASHRAE 189.1-2009 ExtWall Mass ClimateZone 5,  !- Construction Name
    Thermal Zone: Space 101, !- Zone Name
    Space 101,               !- Space Name
    Adiabatic,                !- Outside Boundary Condition
    ,                        !- Outside Boundary Condition Object
    NoSun,              !- Sun Exposure
    NoWind,             !- Wind Exposure
    ,                        !- View Factor to Ground
    ,                        !- Number of Vertices
    @width@,                      !- Vertex 1 X-coordinate {m}
    0,                       !- Vertex 1 Y-coordinate {m}
    @height@,                     !- Vertex 1 Z-coordinate {m}
    @width@,                      !- Vertex 2 X-coordinate {m}
    0,                       !- Vertex 2 Y-coordinate {m}
    0,                       !- Vertex 2 Z-coordinate {m}
    @width@,                      !- Vertex 3 X-coordinate {m}
    @length@,                       !- Vertex 3 Y-coordinate {m}
    0,                       !- Vertex 3 Z-coordinate {m}
    @width@,                      !- Vertex 4 X-coordinate {m}
    @length@,                       !- Vertex 4 Y-coordinate {m}
    @height@;                     !- Vertex 4 Z-coordinate {m}

BuildingSurface:Detailed,
    Surface 5,               !- Name
    Wall,                    !- Surface Type
    ASHRAE 189.1-2009 ExtWall Mass ClimateZone 5,  !- Construction Name
    Thermal Zone: Space 101, !- Zone Name
    Space 101,               !- Space Name
    Outdoors,                !- Outside Boundary Condition
    ,                        !- Outside Boundary Condition Object
    SunExposed,              !- Sun Exposure
    WindExposed,             !- Wind Exposure
    ,                        !- View Factor to Ground
    ,                        !- Number of Vertices
    0,                       !- Vertex 1 X-coordinate {m}
    0,                       !- Vertex 1 Y-coordinate {m}
    @height@,                     !- Vertex 1 Z-coordinate {m}
    0,                       !- Vertex 2 X-coordinate {m}
    0,                       !- Vertex 2 Y-coordinate {m}
    0,                       !- Vertex 2 Z-coordinate {m}
    @width@,                      !- Vertex 3 X-coordinate {m}
    0,                       !- Vertex 3 Y-coordinate {m}
    0,                       !- Vertex 3 Z-coordinate {m}
    @width@,                      !- Vertex 4 X-coordinate {m}
    0,                       !- Vertex 4 Y-coordinate {m}
    @height@;                     !- Vertex 4 Z-coordinate {m}

BuildingSurface:Detailed,
    Surface 6,               !- Name
    Ceiling,                 !- Surface Type
    Interior Ceiling,        !- Construction Name
    Thermal Zone: Space 101, !- Zone Name
    Space 101,               !- Space Name
    Surface,                 !- Outside Boundary Condition
    Surface 7,               !- Outside Boundary Condition Object
    NoSun,                   !- Sun Exposure
    NoWind,                  !- Wind Exposure
    ,                        !- View Factor to Ground
    ,                        !- Number of Vertices
    @width@,                      !- Vertex 1 X-coordinate {m}
    0,                       !- Vertex 1 Y-coordinate {m}
    @height@,                     !- Vertex 1 Z-coordinate {m}
    @width@,                      !- Vertex 2 X-coordinate {m}
    @length@,                       !- Vertex 2 Y-coordinate {m}
   @height@,                     !- Vertex 2 Z-coordinate {m}
    0,                       !- Vertex 3 X-coordinate {m}
    @length@,                       !- Vertex 3 Y-coordinate {m}
   @height@,                     !- Vertex 3 Z-coordinate {m}
    0,                       !- Vertex 4 X-coordinate {m}
    0,                       !- Vertex 4 Y-coordinate {m}
    @height@;                     !- Vertex 4 Z-coordinate {m}

BuildingSurface:Detailed,
    Surface 10,              !- Name
    Wall,                    !- Surface Type
    ASHRAE 189.1-2009 ExtWall Mass ClimateZone 5,  !- Construction Name
    Thermal Zone: Space 102, !- Zone Name
    Space 102,               !- Space Name
    Adiabatic,                !- Outside Boundary Condition
    ,                        !- Outside Boundary Condition Object
    NoSun,              !- Sun Exposure
    NoWind,             !- Wind Exposure
    ,                        !- View Factor to Ground
    ,                        !- Number of Vertices
    @width@,                      !- Vertex 1 X-coordinate {m}
    0,                       !- Vertex 1 Y-coordinate {m}
    @height@,                     !- Vertex 1 Z-coordinate {m}
    @width@,                      !- Vertex 2 X-coordinate {m}
    0,                       !- Vertex 2 Y-coordinate {m}
    0,                       !- Vertex 2 Z-coordinate {m}
    @width@,                      !- Vertex 3 X-coordinate {m}
    @length@,                       !- Vertex 3 Y-coordinate {m}
    0,                       !- Vertex 3 Z-coordinate {m}
    @width@,                      !- Vertex 4 X-coordinate {m}
    @length@,                       !- Vertex 4 Y-coordinate {m}
    @height@;                     !- Vertex 4 Z-coordinate {m}

BuildingSurface:Detailed,
    Surface 11,              !- Name
    Wall,                    !- Surface Type
    ASHRAE 189.1-2009 ExtWall Mass ClimateZone 5,  !- Construction Name
    Thermal Zone: Space 102, !- Zone Name
    Space 102,               !- Space Name
    Outdoors,                !- Outside Boundary Condition
    ,                        !- Outside Boundary Condition Object
    SunExposed,              !- Sun Exposure
    WindExposed,             !- Wind Exposure
    ,                        !- View Factor to Ground
    ,                        !- Number of Vertices
    0,                       !- Vertex 1 X-coordinate {m}
    0,                       !- Vertex 1 Y-coordinate {m}
    @height@,                     !- Vertex 1 Z-coordinate {m}
    0,                       !- Vertex 2 X-coordinate {m}
    0,                       !- Vertex 2 Y-coordinate {m}
    0,                       !- Vertex 2 Z-coordinate {m}
    @width@,                      !- Vertex 3 X-coordinate {m}
    0,                       !- Vertex 3 Y-coordinate {m}
    0,                       !- Vertex 3 Z-coordinate {m}
    @width@,                      !- Vertex 4 X-coordinate {m}
    0,                       !- Vertex 4 Y-coordinate {m}
    @height@;                     !- Vertex 4 Z-coordinate {m}

BuildingSurface:Detailed,
    Surface 12,              !- Name
    Ceiling,                 !- Surface Type
    Interior Ceiling,        !- Construction Name
    Thermal Zone: Space 102, !- Zone Name
    Space 102,               !- Space Name
    Surface,                 !- Outside Boundary Condition
    Surface 13,              !- Outside Boundary Condition Object
    NoSun,                   !- Sun Exposure
    NoWind,                  !- Wind Exposure
    ,                        !- View Factor to Ground
    ,                        !- Number of Vertices
    @width@,                      !- Vertex 1 X-coordinate {m}
    0,                       !- Vertex 1 Y-coordinate {m}
    @height@,                     !- Vertex 1 Z-coordinate {m}
    @width@,                      !- Vertex 2 X-coordinate {m}
    @length@,                       !- Vertex 2 Y-coordinate {m}
   @height@,                     !- Vertex 2 Z-coordinate {m}
    0,                       !- Vertex 3 X-coordinate {m}
    @length@,                       !- Vertex 3 Y-coordinate {m}
   @height@,                     !- Vertex 3 Z-coordinate {m}
    0,                       !- Vertex 4 X-coordinate {m}
    0,                       !- Vertex 4 Y-coordinate {m}
    @height@;                     !- Vertex 4 Z-coordinate {m}

BuildingSurface:Detailed,
    Surface 7,               !- Name
    Floor,                   !- Surface Type
    Interior Floor,          !- Construction Name
    Thermal Zone: Space 102, !- Zone Name
    Space 102,               !- Space Name
    Surface,                 !- Outside Boundary Condition
    Surface 6,               !- Outside Boundary Condition Object
    NoSun,                   !- Sun Exposure
    NoWind,                  !- Wind Exposure
    ,                        !- View Factor to Ground
    ,                        !- Number of Vertices
    @width@,                      !- Vertex 1 X-coordinate {m}
    @length@,                       !- Vertex 1 Y-coordinate {m}
    0,                       !- Vertex 1 Z-coordinate {m}
    @width@,                      !- Vertex 2 X-coordinate {m}
    0,                       !- Vertex 2 Y-coordinate {m}
    0,                       !- Vertex 2 Z-coordinate {m}
    0,                       !- Vertex 3 X-coordinate {m}
    0,                       !- Vertex 3 Y-coordinate {m}
    0,                       !- Vertex 3 Z-coordinate {m}
    0,                       !- Vertex 4 X-coordinate {m}
    @length@,                       !- Vertex 4 Y-coordinate {m}
    0;                       !- Vertex 4 Z-coordinate {m}

BuildingSurface:Detailed,
    Surface 8,               !- Name
    Wall,                    !- Surface Type
    ASHRAE 189.1-2009 ExtWall Mass ClimateZone 5,  !- Construction Name
    Thermal Zone: Space 102, !- Zone Name
    Space 102,               !- Space Name
    Outdoors,                !- Outside Boundary Condition
    ,                        !- Outside Boundary Condition Object
    SunExposed,              !- Sun Exposure
    WindExposed,             !- Wind Exposure
    ,                        !- View Factor to Ground
    ,                        !- Number of Vertices
    0,                       !- Vertex 1 X-coordinate {m}
    @length@,                       !- Vertex 1 Y-coordinate {m}
    @height@,                     !- Vertex 1 Z-coordinate {m}
    0,                       !- Vertex 2 X-coordinate {m}
    @length@,                       !- Vertex 2 Y-coordinate {m}
    0,                       !- Vertex 2 Z-coordinate {m}
    0,                       !- Vertex 3 X-coordinate {m}
    0,                       !- Vertex 3 Y-coordinate {m}
    0,                       !- Vertex 3 Z-coordinate {m}
    0,                       !- Vertex 4 X-coordinate {m}
    0,                       !- Vertex 4 Y-coordinate {m}
    @height@;                     !- Vertex 4 Z-coordinate {m}

BuildingSurface:Detailed,
    Surface 9,               !- Name
    Wall,                    !- Surface Type
    ASHRAE 189.1-2009 ExtWall Mass ClimateZone 5,  !- Construction Name
    Thermal Zone: Space 102, !- Zone Name
    Space 102,               !- Space Name
    Outdoors,                !- Outside Boundary Condition
    ,                        !- Outside Boundary Condition Object
    SunExposed,              !- Sun Exposure
    WindExposed,             !- Wind Exposure
    ,                        !- View Factor to Ground
    ,                        !- Number of Vertices
    @width@,                      !- Vertex 1 X-coordinate {m}
    @length@,                       !- Vertex 1 Y-coordinate {m}
    @height@,                     !- Vertex 1 Z-coordinate {m}
    @width@,                      !- Vertex 2 X-coordinate {m}
    @length@,                       !- Vertex 2 Y-coordinate {m}
    0,                       !- Vertex 2 Z-coordinate {m}
    0,                       !- Vertex 3 X-coordinate {m}
    @length@,                       !- Vertex 3 Y-coordinate {m}
    0,                       !- Vertex 3 Z-coordinate {m}
    0,                       !- Vertex 4 X-coordinate {m}
    @length@,                       !- Vertex 4 Y-coordinate {m}
    @height@;                     !- Vertex 4 Z-coordinate {m}


!-   ===========  ALL OBJECTS IN CLASS: FENESTRATIONSURFACE:DETAILED ===========

FenestrationSurface:Detailed,
    Sub Surface 8,           !- Name
    Window,                  !- Surface Type
    ASHRAE 189.1-2009 ExtWindow ClimateZone 4-5,  !- Construction Name
    Surface 2,               !- Building Surface Name
    ,                        !- Outside Boundary Condition Object
    ,                        !- View Factor to Ground
    ,                        !- Frame and Divider Name
    ,                        !- Multiplier
    ,                        !- Number of Vertices
    0,                       !- Vertex 1 X-coordinate {m}
    @windowEast_y2@,                       !- Vertex 1 Y-coordinate {m}
    @window_z2@,                       !- Vertex 1 Z-coordinate {m}
    0,                       !- Vertex 2 X-coordinate {m}
    @windowEast_y2@,                       !- Vertex 2 Y-coordinate {m}
    @window_z1@,                       !- Vertex 2 Z-coordinate {m}
    0,                       !- Vertex 3 X-coordinate {m}
    @windowEast_y1@,                   !- Vertex 3 Y-coordinate {m}
    @window_z1@,                       !- Vertex 3 Z-coordinate {m}
    0,                       !- Vertex 4 X-coordinate {m}
    @windowEast_y1@,                   !- Vertex 4 Y-coordinate {m}
    @window_z2@;                       !- Vertex 4 Z-coordinate {m}

FenestrationSurface:Detailed,
    Sub Surface 4,           !- Name
    Window,                  !- Surface Type
    ASHRAE 189.1-2009 ExtWindow ClimateZone 4-5,  !- Construction Name
    Surface 3,               !- Building Surface Name
    ,                        !- Outside Boundary Condition Object
    ,                        !- View Factor to Ground
    ,                        !- Frame and Divider Name
    ,                        !- Multiplier
    ,                        !- Number of Vertices
    @windownorth_x6@,                     !- Vertex 1 X-coordinate {m}
    @length@,                       !- Vertex 1 Y-coordinate {m}
    @window_z2@,                     !- Vertex 1 Z-coordinate {m}
    @windownorth_x6@,                     !- Vertex 2 X-coordinate {m}
    @length@,                       !- Vertex 2 Y-coordinate {m}
    @window_z1@,                       !- Vertex 2 Z-coordinate {m}
    @windownorth_x5@,        !- Vertex 3 X-coordinate {m}
    @length@,                       !- Vertex 3 Y-coordinate {m}
    @window_z1@,                       !- Vertex 3 Z-coordinate {m}
    @windownorth_x5@,        !- Vertex 4 X-coordinate {m}
    @length@,                       !- Vertex 4 Y-coordinate {m}
    @window_z2@;                     !- Vertex 4 Z-coordinate {m}

FenestrationSurface:Detailed,
    Sub Surface 5,           !- Name
    Window,                  !- Surface Type
    ASHRAE 189.1-2009 ExtWindow ClimateZone 4-5,  !- Construction Name
    Surface 3,               !- Building Surface Name
    ,                        !- Outside Boundary Condition Object
    ,                        !- View Factor to Ground
    ,                        !- Frame and Divider Name
    ,                        !- Multiplier
    ,                        !- Number of Vertices
    @windownorth_x4@,                     !- Vertex 1 X-coordinate {m}
    @length@,                       !- Vertex 1 Y-coordinate {m}
    @window_z2@,                     !- Vertex 1 Z-coordinate {m}
    @windownorth_x4@,                     !- Vertex 2 X-coordinate {m}
    @length@,                       !- Vertex 2 Y-coordinate {m}
    @window_z1@,                       !- Vertex 2 Z-coordinate {m}
    @windownorth_x3@,                    !- Vertex 3 X-coordinate {m}
    @length@,                       !- Vertex 3 Y-coordinate {m}
    @window_z1@,                       !- Vertex 3 Z-coordinate {m}
    @windownorth_x3@,                    !- Vertex 4 X-coordinate {m}
    @length@,                       !- Vertex 4 Y-coordinate {m}
    @window_z2@;                     !- Vertex 4 Z-coordinate {m}

FenestrationSurface:Detailed,
    Sub Surface 6,           !- Name
    Window,                  !- Surface Type
    ASHRAE 189.1-2009 ExtWindow ClimateZone 4-5,  !- Construction Name
    Surface 3,               !- Building Surface Name
    ,                        !- Outside Boundary Condition Object
    ,                        !- View Factor to Ground
    ,                        !- Frame and Divider Name
    ,                        !- Multiplier
    ,                        !- Number of Vertices
   @windownorth_x2@,                    !- Vertex 1 X-coordinate {m}
    @length@,                       !- Vertex 1 Y-coordinate {m}
    @window_z2@,                     !- Vertex 1 Z-coordinate {m}
    @windownorth_x2@,                    !- Vertex 2 X-coordinate {m}
    @length@,                       !- Vertex 2 Y-coordinate {m}
    @window_z1@,                       !- Vertex 2 Z-coordinate {m}
    @windownorth_x1@,       !- Vertex 3 X-coordinate {m}
    @length@,                       !- Vertex 3 Y-coordinate {m}
    @window_z1@,                       !- Vertex 3 Z-coordinate {m}
   @windownorth_x1@,       !- Vertex 4 X-coordinate {m}
    @length@,                       !- Vertex 4 Y-coordinate {m}
    @window_z2@;                     !- Vertex 4 Z-coordinate {m}

FenestrationSurface:Detailed,
    Sub Surface 1,           !- Name
    Window,                  !- Surface Type
    ASHRAE 189.1-2009 ExtWindow ClimateZone 4-5,  !- Construction Name
    Surface 5,               !- Building Surface Name
    ,                        !- Outside Boundary Condition Object
    ,                        !- View Factor to Ground
    ,                        !- Frame and Divider Name
    ,                        !- Multiplier
    ,                        !- Number of Vertices
    @windowsouth_g_x1@,                     !- Vertex 1 X-coordinate {m}
    0,                       !- Vertex 1 Y-coordinate {m}
    @window_z2@,                     !- Vertex 1 Z-coordinate {m}
    @windowsouth_g_x1@,                     !- Vertex 2 X-coordinate {m}
    0,                       !- Vertex 2 Y-coordinate {m}
    @window_z1@,                       !- Vertex 2 Z-coordinate {m}
    @windowsouth_g_x2@,                    !- Vertex 3 X-coordinate {m}
    0,                       !- Vertex 3 Y-coordinate {m}
    @window_z1@,                       !- Vertex 3 Z-coordinate {m}
    @windowsouth_g_x2@,                    !- Vertex 4 X-coordinate {m}
    0,                       !- Vertex 4 Y-coordinate {m}
    @window_z2@;                     !- Vertex 4 Z-coordinate {m}

FenestrationSurface:Detailed,
    Sub Surface 2,           !- Name
    Door,                    !- Surface Type
    Exterior Door,           !- Construction Name
    Surface 5,               !- Building Surface Name
    ,                        !- Outside Boundary Condition Object
    ,                        !- View Factor to Ground
    ,                        !- Frame and Divider Name
    ,                        !- Multiplier
    ,                        !- Number of Vertices
    4.475,                   !- Vertex 1 X-coordinate {m}
    0,                       !- Vertex 1 Y-coordinate {m}
    2.25,                    !- Vertex 1 Z-coordinate {m}
    4.475,                   !- Vertex 2 X-coordinate {m}
    0,                       !- Vertex 2 Y-coordinate {m}
    -2.00218594604653e-32,   !- Vertex 2 Z-coordinate {m}
    5.475,                   !- Vertex 3 X-coordinate {m}
    0,                       !- Vertex 3 Y-coordinate {m}
    2.00218594604654e-32,    !- Vertex 3 Z-coordinate {m}
    5.475,                   !- Vertex 4 X-coordinate {m}
    0,                       !- Vertex 4 Y-coordinate {m}
    2.25;                    !- Vertex 4 Z-coordinate {m}

FenestrationSurface:Detailed,
    Sub Surface 3,           !- Name
    Window,                  !- Surface Type
    ASHRAE 189.1-2009 ExtWindow ClimateZone 4-5,  !- Construction Name
    Surface 5,               !- Building Surface Name
    ,                        !- Outside Boundary Condition Object
    ,                        !- View Factor to Ground
    ,                        !- Frame and Divider Name
    ,                        !- Multiplier
    ,                        !- Number of Vertices
    @windowsouth_g_x5@,                    !- Vertex 1 X-coordinate {m}
    0,                       !- Vertex 1 Y-coordinate {m}
    @window_z2@,                     !- Vertex 1 Z-coordinate {m}
    @windowsouth_g_x5@,                    !- Vertex 2 X-coordinate {m}
    0,                       !- Vertex 2 Y-coordinate {m}
    @window_z1@,                       !- Vertex 2 Z-coordinate {m}
    @windowsouth_g_x6@,                     !- Vertex 3 X-coordinate {m}
    0,                       !- Vertex 3 Y-coordinate {m}
    @window_z1@,                       !- Vertex 3 Z-coordinate {m}
    @windowsouth_g_x6@,                     !- Vertex 4 X-coordinate {m}
    0,                       !- Vertex 4 Y-coordinate {m}
    @window_z2@;                     !- Vertex 4 Z-coordinate {m}

FenestrationSurface:Detailed,
    Sub Surface 10,          !- Name
    Window,                  !- Surface Type
    ASHRAE 189.1-2009 ExtWindow ClimateZone 4-5,  !- Construction Name
    Surface 11,              !- Building Surface Name
    ,                        !- Outside Boundary Condition Object
    ,                        !- View Factor to Ground
    ,                        !- Frame and Divider Name
    ,                        !- Multiplier
    ,                        !- Number of Vertices
    @windowsouth_u_x3@,                    !- Vertex 1 X-coordinate {m}
    0,                       !- Vertex 1 Y-coordinate {m}
    @window_z2@,                     !- Vertex 1 Z-coordinate {m}
    @windowsouth_u_x3@,                    !- Vertex 2 X-coordinate {m}
    0,                       !- Vertex 2 Y-coordinate {m}
    @window_z1@,                       !- Vertex 2 Z-coordinate {m}
    @windowsouth_u_x4@,                     !- Vertex 3 X-coordinate {m}
    0,                       !- Vertex 3 Y-coordinate {m}
    @window_z1@,                       !- Vertex 3 Z-coordinate {m}
    @windowsouth_u_x4@,                     !- Vertex 4 X-coordinate {m}
    0,                       !- Vertex 4 Y-coordinate {m}
    @window_z2@;                     !- Vertex 4 Z-coordinate {m}

FenestrationSurface:Detailed,
    Sub Surface 11,          !- Name
    Window,                  !- Surface Type
    ASHRAE 189.1-2009 ExtWindow ClimateZone 4-5,  !- Construction Name
    Surface 11,              !- Building Surface Name
    ,                        !- Outside Boundary Condition Object
    ,                        !- View Factor to Ground
    ,                        !- Frame and Divider Name
    ,                        !- Multiplier
    ,                        !- Number of Vertices
    @windowsouth_u_x5@,                    !- Vertex 1 X-coordinate {m}
    0,                       !- Vertex 1 Y-coordinate {m}
    @window_z2@,                     !- Vertex 1 Z-coordinate {m}
    @windowsouth_u_x5@,                    !- Vertex 2 X-coordinate {m}
    0,                       !- Vertex 2 Y-coordinate {m}
    @window_z1@,                       !- Vertex 2 Z-coordinate {m}
    @windowsouth_u_x6@,                     !- Vertex 3 X-coordinate {m}
    0,                       !- Vertex 3 Y-coordinate {m}
    @window_z1@,                       !- Vertex 3 Z-coordinate {m}
    @windowsouth_u_x6@,                     !- Vertex 4 X-coordinate {m}
    0,                       !- Vertex 4 Y-coordinate {m}
    @window_z2@;                     !- Vertex 4 Z-coordinate {m}

FenestrationSurface:Detailed,
    Sub Surface 9,           !- Name
    Window,                  !- Surface Type
    ASHRAE 189.1-2009 ExtWindow ClimateZone 4-5,  !- Construction Name
    Surface 11,              !- Building Surface Name
    ,                        !- Outside Boundary Condition Object
    ,                        !- View Factor to Ground
    ,                        !- Frame and Divider Name
    ,                        !- Multiplier
    ,                        !- Number of Vertices
    @windowsouth_u_x1@,                     !- Vertex 1 X-coordinate {m}
    0,                       !- Vertex 1 Y-coordinate {m}
    @window_z2@,                     !- Vertex 1 Z-coordinate {m}
    @windowsouth_u_x1@,                     !- Vertex 2 X-coordinate {m}
    0,                       !- Vertex 2 Y-coordinate {m}
    @window_z1@,                       !- Vertex 2 Z-coordinate {m}
    @windowsouth_u_x2@,                    !- Vertex 3 X-coordinate {m}
    0,                       !- Vertex 3 Y-coordinate {m}
    @window_z1@,                       !- Vertex 3 Z-coordinate {m}
    @windowsouth_u_x2@,                    !- Vertex 4 X-coordinate {m}
    0,                       !- Vertex 4 Y-coordinate {m}
    @window_z2@;                     !- Vertex 4 Z-coordinate {m}

FenestrationSurface:Detailed,
    Sub Surface 16,          !- Name
    Window,                  !- Surface Type
    ASHRAE 189.1-2009 ExtWindow ClimateZone 4-5,  !- Construction Name
    Surface 8,               !- Building Surface Name
    ,                        !- Outside Boundary Condition Object
    ,                        !- View Factor to Ground
    ,                        !- Frame and Divider Name
    ,                        !- Multiplier
    ,                        !- Number of Vertices
    0,                       !- Vertex 1 X-coordinate {m}
    @windowEast_y2@,                       !- Vertex 1 Y-coordinate {m}
    @window_z2@,                       !- Vertex 1 Z-coordinate {m}
    0,                       !- Vertex 2 X-coordinate {m}
    @windowEast_y2@,                       !- Vertex 2 Y-coordinate {m}
    @window_z1@,                       !- Vertex 2 Z-coordinate {m}
    0,                       !- Vertex 3 X-coordinate {m}
    @windowEast_y1@,                   !- Vertex 3 Y-coordinate {m}
    @window_z1@,                       !- Vertex 3 Z-coordinate {m}
    0,                       !- Vertex 4 X-coordinate {m}
    @windowEast_y1@,                   !- Vertex 4 Y-coordinate {m}
    @window_z2@;                       !- Vertex 4 Z-coordinate {m}

FenestrationSurface:Detailed,
    Sub Surface 12,          !- Name
    Window,                  !- Surface Type
    ASHRAE 189.1-2009 ExtWindow ClimateZone 4-5,  !- Construction Name
    Surface 9,               !- Building Surface Name
    ,                        !- Outside Boundary Condition Object
    ,                        !- View Factor to Ground
    ,                        !- Frame and Divider Name
    ,                        !- Multiplier
    ,                        !- Number of Vertices
    @windownorth_x6@,                     !- Vertex 1 X-coordinate {m}
    @length@,                       !- Vertex 1 Y-coordinate {m}
    @window_z2@,                     !- Vertex 1 Z-coordinate {m}
    @windownorth_x6@,                     !- Vertex 2 X-coordinate {m}
    @length@,                       !- Vertex 2 Y-coordinate {m}
    @window_z1@,                       !- Vertex 2 Z-coordinate {m}
    @windownorth_x5@,        !- Vertex 3 X-coordinate {m}
    @length@,                       !- Vertex 3 Y-coordinate {m}
    @window_z1@,                       !- Vertex 3 Z-coordinate {m}
    @windownorth_x5@,        !- Vertex 4 X-coordinate {m}
    @length@,                       !- Vertex 4 Y-coordinate {m}
    @window_z2@;                     !- Vertex 4 Z-coordinate {m}

FenestrationSurface:Detailed,
    Sub Surface 13,          !- Name
    Window,                  !- Surface Type
    ASHRAE 189.1-2009 ExtWindow ClimateZone 4-5,  !- Construction Name
    Surface 9,               !- Building Surface Name
    ,                        !- Outside Boundary Condition Object
    ,                        !- View Factor to Ground
    ,                        !- Frame and Divider Name
    ,                        !- Multiplier
    ,                        !- Number of Vertices
    @windownorth_x4@,                     !- Vertex 1 X-coordinate {m}
    @length@,                       !- Vertex 1 Y-coordinate {m}
    @window_z2@,                     !- Vertex 1 Z-coordinate {m}
    @windownorth_x4@,                     !- Vertex 2 X-coordinate {m}
    @length@,                       !- Vertex 2 Y-coordinate {m}
    @window_z1@,                       !- Vertex 2 Z-coordinate {m}
    @windownorth_x3@,                    !- Vertex 3 X-coordinate {m}
    @length@,                       !- Vertex 3 Y-coordinate {m}
    @window_z1@,                       !- Vertex 3 Z-coordinate {m}
    @windownorth_x3@,                    !- Vertex 4 X-coordinate {m}
    @length@,                       !- Vertex 4 Y-coordinate {m}
    @window_z2@;                     !- Vertex 4 Z-coordinate {m}

FenestrationSurface:Detailed,
    Sub Surface 14,          !- Name
    Window,                  !- Surface Type
    ASHRAE 189.1-2009 ExtWindow ClimateZone 4-5,  !- Construction Name
    Surface 9,               !- Building Surface Name
    ,                        !- Outside Boundary Condition Object
    ,                        !- View Factor to Ground
    ,                        !- Frame and Divider Name
    ,                        !- Multiplier
    ,                        !- Number of Vertices
    @windownorth_x2@,                    !- Vertex 1 X-coordinate {m}
    @length@,                       !- Vertex 1 Y-coordinate {m}
    @window_z2@,                     !- Vertex 1 Z-coordinate {m}
    @windownorth_x2@,                    !- Vertex 2 X-coordinate {m}
    @length@,                       !- Vertex 2 Y-coordinate {m}
    @window_z1@,                       !- Vertex 2 Z-coordinate {m}
    @windownorth_x1@,       !- Vertex 3 X-coordinate {m}
    @length@,                       !- Vertex 3 Y-coordinate {m}
    @window_z1@,                       !- Vertex 3 Z-coordinate {m}
    @windownorth_x1@,       !- Vertex 4 X-coordinate {m}
    @length@,                       !- Vertex 4 Y-coordinate {m}
    @window_z2@;                     !- Vertex 4 Z-coordinate {m}


!-   ===========  ALL OBJECTS IN CLASS: WINDOWPROPERTY:FRAMEANDDIVIDER ===========

WindowProperty:FrameAndDivider,
    Window Property Frame And Divider 1,  !- Name
    0.05081016,              !- Frame Width {m}
    0.05081016,              !- Frame Outside Projection {m}
    0.05081016,              !- Frame Inside Projection {m}
    0,                       !- Frame Conductance {W/m2-K}
    1,                       !- Ratio of Frame-Edge Glass Conductance to Center-Of-Glass Conductance
    0.7,                     !- Frame Solar Absorptance
    0.7,                     !- Frame Visible Absorptance
    0.9,                     !- Frame Thermal Hemispherical Emissivity
    DividedLite,             !- Divider Type
    0,                       !- Divider Width {m}
    0,                       !- Number of Horizontal Dividers
    0,                       !- Number of Vertical Dividers
    0,                       !- Divider Outside Projection {m}
    0,                       !- Divider Inside Projection {m}
    0,                       !- Divider Conductance {W/m2-K}
    1,                       !- Ratio of Divider-Edge Glass Conductance to Center-Of-Glass Conductance
    0,                       !- Divider Solar Absorptance
    0,                       !- Divider Visible Absorptance
    0.9,                     !- Divider Thermal Hemispherical Emissivity
    0,                       !- Outside Reveal Solar Absorptance
    0,                       !- Inside Sill Depth {m}
    0,                       !- Inside Sill Solar Absorptance
    0,                       !- Inside Reveal Depth {m}
    0,                       !- Inside Reveal Solar Absorptance
    CurtainWall;             !- NFRC Product Type for Assembly Calculations


!-   ===========  ALL OBJECTS IN CLASS: PEOPLE ===========

People,
    People_Space101,         !- Name
    Space 101,               !- Zone or ZoneList or Space or SpaceList Name
    NECB-G-Occupancy,        !- Number of People Schedule Name
    People,                  !- Number of People Calculation Method
    @numPeople_101@,             !- Number of People
    ,                        !- People per Floor Area {person/m2}
    ,                        !- Floor Area per Person {m2/person}
    ,                        !- Fraction Radiant
    ,                        !- Sensible Heat Fraction
    NECB-Activity,           !- Activity Level Schedule Name
    ,                        !- Carbon Dioxide Generation Rate {m3/s-W}
    ,                        !- Enable ASHRAE 55 Comfort Warnings
    ,                        !- Mean Radiant Temperature Calculation Type
    ,                        !- Surface Name/Angle Factor List Name
    Work Efficiency Schedule,!- Work Efficiency Schedule Name
    ,                        !- Clothing Insulation Calculation Method
    ,                        !- Clothing Insulation Calculation Method Schedule Name
    Clothing Schedule,       !- Clothing Insulation Schedule Name
    Air Velocity Schedule,   !- Air Velocity Schedule Name
    AdaptiveASH55,           !- Thermal Comfort Model 1 Type
    Pierce;                  !- Thermal Comfort Model 2 Type

People,
    People_Space102,         !- Name
    Space 102,               !- Zone or ZoneList or Space or SpaceList Name
    NECB-G-Occupancy,        !- Number of People Schedule Name
    People,                  !- Number of People Calculation Method
    @numPeople_102@,             !- Number of People
    ,                        !- People per Floor Area {person/m2}
    ,                        !- Floor Area per Person {m2/person}
    ,                        !- Fraction Radiant
    ,                        !- Sensible Heat Fraction
    NECB-Activity,           !- Activity Level Schedule Name
    ,                        !- Carbon Dioxide Generation Rate {m3/s-W}
    ,                        !- Enable ASHRAE 55 Comfort Warnings
    ,                        !- Mean Radiant Temperature Calculation Type
    ,                        !- Surface Name/Angle Factor List Name
    Work Efficiency Schedule,!- Work Efficiency Schedule Name
    ,                        !- Clothing Insulation Calculation Method
    ,                        !- Clothing Insulation Calculation Method Schedule Name
    Clothing Schedule,       !- Clothing Insulation Schedule Name
    Air Velocity Schedule,   !- Air Velocity Schedule Name
    AdaptiveASH55,           !- Thermal Comfort Model 1 Type
    Pierce;                  !- Thermal Comfort Model 2 Type


!-   ===========  ALL OBJECTS IN CLASS: LIGHTS ===========

Lights,
    Lights_Space101,         !- Name
    Space 101,               !- Zone or ZoneList or Space or SpaceList Name
    NECB-G-Lighting,         !- Schedule Name
    Watts/Area,              !- Design Level Calculation Method
    ,                        !- Lighting Level {W}
    5,                       !- Watts per Floor Area {W/m2}
    ,                        !- Watts per Person {W/person}
    ,                        !- Return Air Fraction
    0.5,                     !- Fraction Radiant
    0.2,                     !- Fraction Visible
    1;                       !- Fraction Replaceable

Lights,
    Lights_Space102,         !- Name
    Space 102,               !- Zone or ZoneList or Space or SpaceList Name
    NECB-G-Lighting,         !- Schedule Name
    Watts/Area,              !- Design Level Calculation Method
    ,                        !- Lighting Level {W}
    5,                       !- Watts per Floor Area {W/m2}
    ,                        !- Watts per Person {W/person}
    ,                        !- Return Air Fraction
    0.5,                     !- Fraction Radiant
    0.2,                     !- Fraction Visible
    1;                       !- Fraction Replaceable


!-   ===========  ALL OBJECTS IN CLASS: ELECTRICEQUIPMENT ===========

ElectricEquipment,
    ElectricEquipment_Space101,  !- Name
    Space 101,               !- Zone or ZoneList or Space or SpaceList Name
    NECB-G-Electric-Equipment,  !- Schedule Name
    Watts/Area,              !- Design Level Calculation Method
    ,                        !- Design Level {W}
    5,                       !- Watts per Floor Area {W/m2}
    ,                        !- Watts per Person {W/person}
    ,                        !- Fraction Latent
    ,                        !- Fraction Radiant
    ,                        !- Fraction Lost
    General;                 !- End-Use Subcategory

ElectricEquipment,
    ElectricEquipment_Space102,  !- Name
    Space 102,               !- Zone or ZoneList or Space or SpaceList Name
    NECB-G-Electric-Equipment,  !- Schedule Name
    Watts/Area,              !- Design Level Calculation Method
    ,                        !- Design Level {W}
    5,                       !- Watts per Floor Area {W/m2}
    ,                        !- Watts per Person {W/person}
    ,                        !- Fraction Latent
    ,                        !- Fraction Radiant
    ,                        !- Fraction Lost
    General;                 !- End-Use Subcategory


!-   ===========  ALL OBJECTS IN CLASS: ZONEINFILTRATION:FLOWCOEFFICIENT ===========

ZoneInfiltration:FlowCoefficient,
    Infiltration_Space101,   !- Name
    Thermal Zone: Space 101, !- Zone or Space Name
    ,                        !- Schedule Name
    @flowCoefficient_101@,       !- Flow Coefficient {m3/s}
    0.069,                   !- Stack Coefficient
    0.67,                    !- Pressure Exponent
    0.142,                   !- Wind Coefficient
    0.86;                    !- Shelter Factor

ZoneInfiltration:FlowCoefficient,
    Infiltration_Space102,   !- Name
    Thermal Zone: Space 102, !- Zone or Space Name
    ,                        !- Schedule Name
    @flowCoefficient_102@,       !- Flow Coefficient {m3/s}
    0.069,                   !- Stack Coefficient
    0.67,                    !- Pressure Exponent
    0.142,                   !- Wind Coefficient
    0.86;                    !- Shelter Factor

ZoneInfiltration:DesignFlowRate,
    Infiltration_Space1_Loft,  !- Name
    Thermal Zone: Space 1,   !- Zone or Space Name
    ,                        !- Schedule Name (always on)
    AirChanges/Hour,         !- Design Flow Rate Calculation Method
    ,                        !- Design Flow Rate {m3/s}
    ,                        !- Flow per Zone Floor Area {m3/s-m2}
    ,                        !- Flow per Exterior Surface Area {m3/s-m2}
    2.0;                     !- Air Changes per Hour (ventilated cold loft, BS EN ISO 6946)


!-   ===========  THERMOSTAT SETPOINT SCHEDULES ===========

ScheduleTypeLimits,
    Any Number,              !- Name
    ,                        !- Lower Limit Value
    ,                        !- Upper Limit Value
    Continuous;              !- Numeric Type

Schedule:Day:Interval,
    Heating Setpoint Day,    !- Name
    Any Number,              !- Schedule Type Limits Name
    No,                      !- Interpolate to Timestep
    7:00,                    !- Time 1 {hh:mm}
    18,                      !- Value Until Time 1
    23:00,                   !- Time 2 {hh:mm}
    @heatingSetpoint@,       !- Value Until Time 2
    24:00,                   !- Time 3 {hh:mm}
    18;                      !- Value Until Time 3

Schedule:Day:Interval,
    Cooling Setpoint Day,    !- Name
    Any Number,              !- Schedule Type Limits Name
    No,                      !- Interpolate to Timestep
    24:00,                   !- Time 1 {hh:mm}
    @coolingSetpoint@;       !- Value Until Time 1

Schedule:Week:Daily,
    Heating Setpoint Week,   !- Name
    Heating Setpoint Day,    !- Sunday Schedule:Day Name
    Heating Setpoint Day,    !- Monday Schedule:Day Name
    Heating Setpoint Day,    !- Tuesday Schedule:Day Name
    Heating Setpoint Day,    !- Wednesday Schedule:Day Name
    Heating Setpoint Day,    !- Thursday Schedule:Day Name
    Heating Setpoint Day,    !- Friday Schedule:Day Name
    Heating Setpoint Day,    !- Saturday Schedule:Day Name
    Heating Setpoint Day,    !- Holiday Schedule:Day Name
    Heating Setpoint Day,    !- SummerDesignDay Schedule:Day Name
    Heating Setpoint Day,    !- WinterDesignDay Schedule:Day Name
    Heating Setpoint Day,    !- CustomDay1 Schedule:Day Name
    Heating Setpoint Day;    !- CustomDay2 Schedule:Day Name

Schedule:Week:Daily,
    Cooling Setpoint Week,   !- Name
    Cooling Setpoint Day,    !- Sunday Schedule:Day Name
    Cooling Setpoint Day,    !- Monday Schedule:Day Name
    Cooling Setpoint Day,    !- Tuesday Schedule:Day Name
    Cooling Setpoint Day,    !- Wednesday Schedule:Day Name
    Cooling Setpoint Day,    !- Thursday Schedule:Day Name
    Cooling Setpoint Day,    !- Friday Schedule:Day Name
    Cooling Setpoint Day,    !- Saturday Schedule:Day Name
    Cooling Setpoint Day,    !- Holiday Schedule:Day Name
    Cooling Setpoint Day,    !- SummerDesignDay Schedule:Day Name
    Cooling Setpoint Day,    !- WinterDesignDay Schedule:Day Name
    Cooling Setpoint Day,    !- CustomDay1 Schedule:Day Name
    Cooling Setpoint Day;    !- CustomDay2 Schedule:Day Name

Schedule:Year,
    Heating Setpoint Year,   !- Name
    Any Number,              !- Schedule Type Limits Name
    Heating Setpoint Week,   !- Schedule:Week Name 1
    1,                       !- Start Month 1
    1,                       !- Start Day 1
    12,                      !- End Month 1
    31;                      !- End Day 1

Schedule:Year,
    Cooling Setpoint Year,   !- Name
    Any Number,              !- Schedule Type Limits Name
    Cooling Setpoint Week,   !- Schedule:Week Name 1
    1,                       !- Start Month 1
    1,                       !- Start Day 1
    12,                      !- End Month 1
    31;                      !- End Day 1

Schedule:Compact,
    Always 4,                !- Name
    Any Number,              !- Schedule Type Limits Name
    Through: 12/31,          !- Field 1
    For: AllDays,            !- Field 2
    Until: 24:00,            !- Field 3
    4;                       !- Field 4


!-   ===========  ALL OBJECTS IN CLASS: THERMOSTATSETPOINT:DUALSETPOINT ===========

ThermostatSetpoint:DualSetpoint,
    Thermostat Space101 Dual SP,  !- Name
    Heating Setpoint Year,   !- Heating Setpoint Temperature Schedule Name
    Cooling Setpoint Year;   !- Cooling Setpoint Temperature Schedule Name

ThermostatSetpoint:DualSetpoint,
    Thermostat Space102 Dual SP,  !- Name
    Heating Setpoint Year,   !- Heating Setpoint Temperature Schedule Name
    Cooling Setpoint Year;   !- Cooling Setpoint Temperature Schedule Name


!-   ===========  ALL OBJECTS IN CLASS: ZONECONTROL:THERMOSTAT ===========

ZoneControl:Thermostat,
    Space101 Thermostat,     !- Name
    Thermal Zone: Space 101, !- Zone or ZoneList Name
    Always 4,                !- Control Type Schedule Name
    ThermostatSetpoint:DualSetpoint,  !- Control 1 Object Type
    Thermostat Space101 Dual SP;  !- Control 1 Name

ZoneControl:Thermostat,
    Space102 Thermostat,     !- Name
    Thermal Zone: Space 102, !- Zone or ZoneList Name
    Always 4,                !- Control Type Schedule Name
    ThermostatSetpoint:DualSetpoint,  !- Control 1 Object Type
    Thermostat Space102 Dual SP;  !- Control 1 Name


!-   ===========  ALL OBJECTS IN CLASS: ZONEHVAC:IDEALLOADSAIRSYSTEM ===========

ZoneHVAC:IdealLoadsAirSystem,
    Space101 Ideal Loads,    !- Name
    ,                        !- Availability Schedule Name
    Space101 Supply Inlet,   !- Zone Supply Air Node Name
    ,                        !- Zone Exhaust Air Node Name
    ,                        !- System Inlet Air Node Name
    50,                      !- Maximum Heating Supply Air Temperature {C}
    13,                      !- Minimum Cooling Supply Air Temperature {C}
    0.0156,                  !- Maximum Heating Supply Air Humidity Ratio {kgWater/kgDryAir}
    0.0077,                  !- Minimum Cooling Supply Air Humidity Ratio {kgWater/kgDryAir}
    NoLimit,                 !- Heating Limit
    ,                        !- Maximum Heating Air Flow Rate {m3/s}
    ,                        !- Maximum Sensible Heating Capacity {W}
    NoLimit,                 !- Cooling Limit
    ,                        !- Maximum Cooling Air Flow Rate {m3/s}
    ,                        !- Maximum Total Cooling Capacity {W}
    ,                        !- Heating Availability Schedule Name
    ,                        !- Cooling Availability Schedule Name
    ConstantSensibleHeatRatio,  !- Dehumidification Control Type
    0.7,                     !- Cooling Sensible Heat Ratio {dimensionless}
    None,                    !- Humidification Control Type
    SZ DSOA Space101,        !- Design Specification Outdoor Air Object Name
    Space101 OA Inlet,       !- Outdoor Air Inlet Node Name
    None,                    !- Demand Controlled Ventilation Type
    NoEconomizer,            !- Outdoor Air Economizer Type
    Sensible,                !- Heat Recovery Type
    0.7,                     !- Sensible Heat Recovery Effectiveness {dimensionless}
    0.65;                    !- Latent Heat Recovery Effectiveness {dimensionless}

ZoneHVAC:IdealLoadsAirSystem,
    Space102 Ideal Loads,    !- Name
    ,                        !- Availability Schedule Name
    Space102 Supply Inlet,   !- Zone Supply Air Node Name
    ,                        !- Zone Exhaust Air Node Name
    ,                        !- System Inlet Air Node Name
    50,                      !- Maximum Heating Supply Air Temperature {C}
    13,                      !- Minimum Cooling Supply Air Temperature {C}
    0.0156,                  !- Maximum Heating Supply Air Humidity Ratio {kgWater/kgDryAir}
    0.0077,                  !- Minimum Cooling Supply Air Humidity Ratio {kgWater/kgDryAir}
    NoLimit,                 !- Heating Limit
    ,                        !- Maximum Heating Air Flow Rate {m3/s}
    ,                        !- Maximum Sensible Heating Capacity {W}
    NoLimit,                 !- Cooling Limit
    ,                        !- Maximum Cooling Air Flow Rate {m3/s}
    ,                        !- Maximum Total Cooling Capacity {W}
    ,                        !- Heating Availability Schedule Name
    ,                        !- Cooling Availability Schedule Name
    ConstantSensibleHeatRatio,  !- Dehumidification Control Type
    0.7,                     !- Cooling Sensible Heat Ratio {dimensionless}
    None,                    !- Humidification Control Type
    SZ DSOA Space102,        !- Design Specification Outdoor Air Object Name
    Space102 OA Inlet,       !- Outdoor Air Inlet Node Name
    None,                    !- Demand Controlled Ventilation Type
    NoEconomizer,            !- Outdoor Air Economizer Type
    Sensible,                !- Heat Recovery Type
    0.7,                     !- Sensible Heat Recovery Effectiveness {dimensionless}
    0.65;                    !- Latent Heat Recovery Effectiveness {dimensionless}


!-   ===========  ALL OBJECTS IN CLASS: ZONEHVAC:EQUIPMENTLIST ===========

ZoneHVAC:EquipmentList,
    Space101 Equipment,      !- Name
    SequentialLoad,          !- Load Distribution Scheme
    ZoneHVAC:IdealLoadsAirSystem,  !- Zone Equipment 1 Object Type
    Space101 Ideal Loads,    !- Zone Equipment 1 Name
    1,                       !- Zone Equipment 1 Cooling Sequence
    1,                       !- Zone Equipment 1 Heating or No-Load Sequence
    ,                        !- Zone Equipment 1 Sequential Cooling Fraction Schedule Name
    ;                        !- Zone Equipment 1 Sequential Heating Fraction Schedule Name

ZoneHVAC:EquipmentList,
    Space102 Equipment,      !- Name
    SequentialLoad,          !- Load Distribution Scheme
    ZoneHVAC:IdealLoadsAirSystem,  !- Zone Equipment 1 Object Type
    Space102 Ideal Loads,    !- Zone Equipment 1 Name
    1,                       !- Zone Equipment 1 Cooling Sequence
    1,                       !- Zone Equipment 1 Heating or No-Load Sequence
    ,                        !- Zone Equipment 1 Sequential Cooling Fraction Schedule Name
    ;                        !- Zone Equipment 1 Sequential Heating Fraction Schedule Name


!-   ===========  ALL OBJECTS IN CLASS: ZONEHVAC:EQUIPMENTCONNECTIONS ===========

ZoneHVAC:EquipmentConnections,
    Thermal Zone: Space 101, !- Zone Name
    Space101 Equipment,      !- Zone Conditioning Equipment List Name
    Space101 Supply Inlet,   !- Zone Air Inlet Node or NodeList Name
    ,                        !- Zone Air Exhaust Node or NodeList Name
    Space101 Zone Air Node,  !- Zone Air Node Name
    Space101 Return Outlet;  !- Zone Return Air Node or NodeList Name

ZoneHVAC:EquipmentConnections,
    Thermal Zone: Space 102, !- Zone Name
    Space102 Equipment,      !- Zone Conditioning Equipment List Name
    Space102 Supply Inlet,   !- Zone Air Inlet Node or NodeList Name
    ,                        !- Zone Air Exhaust Node or NodeList Name
    Space102 Zone Air Node,  !- Zone Air Node Name
    Space102 Return Outlet;  !- Zone Return Air Node or NodeList Name


!-   ===========  ALL OBJECTS IN CLASS: OUTDOORAIR:NODELIST ===========

OutdoorAir:NodeList,
    Space101 OA Inlet;       !- Node or NodeList Name 1

OutdoorAir:NodeList,
    Space102 OA Inlet;       !- Node or NodeList Name 1


!-   ===========  ALL OBJECTS IN CLASS: OUTDOORAIR:NODE ===========

OutdoorAir:Node,
    Model Outdoor Air Node;  !- Name


!-   ===========  ALL OBJECTS IN CLASS: LIFECYCLECOST:PARAMETERS ===========

LifeCycleCost:Parameters,
    Life Cycle Cost Parameters,  !- Name
    EndOfYear,               !- Discounting Convention
    ConstantDollar,          !- Inflation Approach
    0.03,                    !- Real Discount Rate
    ,                        !- Nominal Discount Rate
    ,                        !- Inflation
    ,                        !- Base Date Month
    2011,                    !- Base Date Year
    ,                        !- Service Date Month
    2011,                    !- Service Date Year
    25,                      !- Length of Study Period in Years
    ,                        !- Tax rate
    None;                    !- Depreciation Method


!-   ===========  ALL OBJECTS IN CLASS: LIFECYCLECOST:NONRECURRINGCOST ===========

LifeCycleCost:NonrecurringCost,
    Default Cost,            !- Name
    Construction,            !- Category
    0,                       !- Cost
    ServicePeriod;           !- Start of Costs


!-   ===========  ALL OBJECTS IN CLASS: LIFECYCLECOST:USEPRICEESCALATION ===========

LifeCycleCost:UsePriceEscalation,
    U.S. Avg  Commercial-Electricity,  !- LCC Price Escalation Name
    Electricity,             !- Resource
    2011,                    !- Escalation Start Year
    January,                 !- Escalation Start Month
    0.9838,                  !- Year 1 Escalation
    0.9730,                  !- Year 2 Escalation
    0.9632,                  !- Year 3 Escalation
    0.9611,                  !- Year 4 Escalation
    0.9571,                  !- Year 5 Escalation
    0.9553,                  !- Year 6 Escalation
    0.9539,                  !- Year 7 Escalation
    0.9521,                  !- Year 8 Escalation
    0.9546,                  !- Year 9 Escalation
    0.9550,                  !- N11
    0.9553,                  !- N12
    0.9564,                  !- N13
    0.9575,                  !- N14
    0.9596,                  !- N15
    0.9618,                  !- N16
    0.9614,                  !- N17
    0.9618,                  !- N18
    0.9618,                  !- N19
    0.9593,                  !- N20
    0.9589,                  !- N21
    0.9607,                  !- N22
    0.9625,                  !- N23
    0.9650,                  !- N24
    0.9708,                  !- N25
    0.9751,                  !- N26
    0.9762,                  !- N27
    0.9766,                  !- N28
    0.9766,                  !- N29
    0.9769,                  !- N30
    0.9773;                  !- N31

LifeCycleCost:UsePriceEscalation,
    U.S. Avg  Commercial-Distillate Oil,  !- LCC Price Escalation Name
    FuelOilNo1,              !- Resource
    2011,                    !- Escalation Start Year
    January,                 !- Escalation Start Month
    0.9714,                  !- Year 1 Escalation
    0.9730,                  !- Year 2 Escalation
    0.9942,                  !- Year 3 Escalation
    1.0164,                  !- Year 4 Escalation
    1.0541,                  !- Year 5 Escalation
    1.0928,                  !- Year 6 Escalation
    1.1267,                  !- Year 7 Escalation
    1.1580,                  !- Year 8 Escalation
    1.1792,                  !- Year 9 Escalation
    1.1967,                  !- N11
    1.2200,                  !- N12
    1.2333,                  !- N13
    1.2566,                  !- N14
    1.2709,                  !- N15
    1.2826,                  !- N16
    1.2985,                  !- N17
    1.3102,                  !- N18
    1.3250,                  !- N19
    1.3261,                  !- N20
    1.3282,                  !- N21
    1.3324,                  !- N22
    1.3356,                  !- N23
    1.3431,                  !- N24
    1.3510,                  !- N25
    1.3568,                  !- N26
    1.3606,                  !- N27
    1.3637,                  !- N28
    1.3674,                  !- N29
    1.3706,                  !- N30
    1.3743;                  !- N31

LifeCycleCost:UsePriceEscalation,
    U.S. Avg  Commercial-Residual Oil,  !- LCC Price Escalation Name
    FuelOilNo2,              !- Resource
    2011,                    !- Escalation Start Year
    January,                 !- Escalation Start Month
    0.8469,                  !- Year 1 Escalation
    0.8257,                  !- Year 2 Escalation
    0.8681,                  !- Year 3 Escalation
    0.8988,                  !- Year 4 Escalation
    0.9289,                  !- Year 5 Escalation
    0.9604,                  !- Year 6 Escalation
    0.9897,                  !- Year 7 Escalation
    1.0075,                  !- Year 8 Escalation
    1.0314,                  !- Year 9 Escalation
    1.0554,                  !- N11
    1.0861,                  !- N12
    1.1278,                  !- N13
    1.1497,                  !- N14
    1.1620,                  !- N15
    1.1743,                  !- N16
    1.1852,                  !- N17
    1.1948,                  !- N18
    1.2037,                  !- N19
    1.2071,                  !- N20
    1.2119,                  !- N21
    1.2139,                  !- N22
    1.2194,                  !- N23
    1.2276,                  !- N24
    1.2365,                  !- N25
    1.2420,                  !- N26
    1.2461,                  !- N27
    1.2509,                  !- N28
    1.2550,                  !- N29
    1.2591,                  !- N30
    1.2638;                  !- N31

LifeCycleCost:UsePriceEscalation,
    U.S. Avg  Commercial-Natural gas,  !- LCC Price Escalation Name
    NaturalGas,              !- Resource
    2011,                    !- Escalation Start Year
    January,                 !- Escalation Start Month
    0.9823,                  !- Year 1 Escalation
    0.9557,                  !- Year 2 Escalation
    0.9279,                  !- Year 3 Escalation
    0.9257,                  !- Year 4 Escalation
    0.9346,                  !- Year 5 Escalation
    0.9412,                  !- Year 6 Escalation
    0.9512,                  !- Year 7 Escalation
    0.9645,                  !- Year 8 Escalation
    0.9856,                  !- Year 9 Escalation
    1.0067,                  !- N11
    1.0222,                  !- N12
    1.0410,                  !- N13
    1.0610,                  !- N14
    1.0787,                  !- N15
    1.0942,                  !- N16
    1.1098,                  !- N17
    1.1220,                  !- N18
    1.1308,                  !- N19
    1.1386,                  !- N20
    1.1486,                  !- N21
    1.1619,                  !- N22
    1.1763,                  !- N23
    1.1918,                  !- N24
    1.2118,                  !- N25
    1.2284,                  !- N26
    1.2439,                  !- N27
    1.2605,                  !- N28
    1.2772,                  !- N29
    1.2938,                  !- N30
    1.3115;                  !- N31

LifeCycleCost:UsePriceEscalation,
    U.S. Avg  Commercial-Coal,  !- LCC Price Escalation Name
    Coal,                    !- Resource
    2011,                    !- Escalation Start Year
    January,                 !- Escalation Start Month
    0.9970,                  !- Year 1 Escalation
    1.0089,                  !- Year 2 Escalation
    1.0089,                  !- Year 3 Escalation
    0.9941,                  !- Year 4 Escalation
    0.9941,                  !- Year 5 Escalation
    1.0000,                  !- Year 6 Escalation
    1.0030,                  !- Year 7 Escalation
    1.0059,                  !- Year 8 Escalation
    1.0089,                  !- Year 9 Escalation
    1.0119,                  !- N11
    1.0148,                  !- N12
    1.0178,                  !- N13
    1.0208,                  !- N14
    1.0267,                  !- N15
    1.0297,                  !- N16
    1.0356,                  !- N17
    1.0415,                  !- N18
    1.0534,                  !- N19
    1.0564,                  !- N20
    1.0593,                  !- N21
    1.0653,                  !- N22
    1.0712,                  !- N23
    1.0742,                  !- N24
    1.0801,                  !- N25
    1.0831,                  !- N26
    1.0831,                  !- N27
    1.0861,                  !- N28
    1.0890,                  !- N29
    1.0920,                  !- N30
    1.0950;                  !- N31


!-   ===========  ALL OBJECTS IN CLASS: INTERNALMASS ===========

InternalMass,
    Thermal Mass_101,        !- Name
    Interior Wall,           !- Construction Name
    Thermal Zone: Space 101, !- Zone or ZoneList Name
    ,                        !- Space or SpaceList Name
    @internalMass@;          !- Surface Area {m2}

InternalMass,
    Thermal Mass_102,        !- Name
    Interior Wall,           !- Construction Name
    Thermal Zone: Space 102, !- Zone or ZoneList Name
    ,                        !- Space or SpaceList Name
    @internalMass@;          !- Surface Area {m2}


!-   ===========  ALL OBJECTS IN CLASS: WINDOWSHADINGCONTROL ===========

WindowShadingControl,
    ShadingControl_Space101, !- Name
    Thermal Zone: Space 101, !- Zone Name
    1,                       !- Shading Control Sequence Number
    InteriorShade,           !- Shading Type
    ,                        !- Construction with Shading Name
    OnIfHighZoneAirTemperature,  !- Shading Control Type
    ,                        !- Schedule Name
    26.5,                    !- Setpoint {W/m2, W or deg C}
    No,                      !- Shading Control Is Scheduled
    No,                      !- Glare Control Is Active
    Shade_Openness_0.05,     !- Shading Device Material Name
    FixedSlatAngle,          !- Type of Slat Angle Control for Blinds
    ,                        !- Slat Angle Schedule Name
    ,                        !- Setpoint 2 {W/m2, deg C or cd/m2}
    ,                        !- Daylighting Control Object Name
    Group,                   !- Multiple Surface Control Type
    Sub Surface 8,           !- Fenestration Surface 1 Name
    Sub Surface 4,           !- Fenestration Surface 2 Name
    Sub Surface 5,           !- Fenestration Surface 3 Name
    Sub Surface 6,           !- Fenestration Surface 4 Name
    Sub Surface 1,           !- Fenestration Surface 6 Name
    Sub Surface 3;           !- Fenestration Surface 7 Name

WindowShadingControl,
    ShadingControl_Space102, !- Name
    Thermal Zone: Space 102, !- Zone Name
    1,                       !- Shading Control Sequence Number
    InteriorShade,           !- Shading Type
    ,                        !- Construction with Shading Name
    OnIfHighZoneAirTemperature,  !- Shading Control Type
    ,                        !- Schedule Name
    26.5,                    !- Setpoint {W/m2, W or deg C}
    No,                      !- Shading Control Is Scheduled
    No,                      !- Glare Control Is Active
    Shade_Openness_0.05,     !- Shading Device Material Name
    FixedSlatAngle,          !- Type of Slat Angle Control for Blinds
    ,                        !- Slat Angle Schedule Name
    ,                        !- Setpoint 2 {W/m2, deg C or cd/m2}
    ,                        !- Daylighting Control Object Name
    Group,                   !- Multiple Surface Control Type
    Sub Surface 10,          !- Fenestration Surface 2 Name
    Sub Surface 11,          !- Fenestration Surface 3 Name
    Sub Surface 9,           !- Fenestration Surface 4 Name
    Sub Surface 16,          !- Fenestration Surface 5 Name
    Sub Surface 12,          !- Fenestration Surface 6 Name
    Sub Surface 13,          !- Fenestration Surface 7 Name
    Sub Surface 14;          !- Fenestration Surface 8 Name


!-   ===========  ALL OBJECTS IN CLASS: DESIGNSPECIFICATION:OUTDOORAIR ===========

DesignSpecification:OutdoorAir,
    SZ DSOA Space101,        !- Name
    Flow/Zone,               !- Outdoor Air Method
    0,                       !- Outdoor Air Flow per Person {m3/s-person}
    0,                       !- Outdoor Air Flow per Zone Floor Area {m3/s-m2}
    @ventilationRate@;       !- Outdoor Air Flow per Zone {m3/s}

DesignSpecification:OutdoorAir,
    SZ DSOA Space102,        !- Name
    Flow/Zone,               !- Outdoor Air Method
    0,                       !- Outdoor Air Flow per Person {m3/s-person}
    0,                       !- Outdoor Air Flow per Zone Floor Area {m3/s-m2}
    @ventilationRate@;       !- Outdoor Air Flow per Zone {m3/s}

!-   ===========  ALL OBJECTS IN CLASS: SHADING:OVERHANG ===========

Shading:Overhang,
    Shade_SubSurface8,       !- Name
    Sub Surface 8,           !- Window or Door Name
    0.5,                     !- Height above Window or Door {m}
    90,                      !- Tilt Angle from Window/Door {deg}
    0.5,                     !- Left extension from Window/Door Width {m}
    0.5,                     !- Right extension from Window/Door Width {m}
    @fixedShadingDepth@;     !- Depth {m}

Shading:Overhang,
    Shade_SubSurface4,       !- Name
    Sub Surface 4,           !- Window or Door Name
    0.5,                     !- Height above Window or Door {m}
    90,                      !- Tilt Angle from Window/Door {deg}
    0.5,                     !- Left extension from Window/Door Width {m}
    0.5,                     !- Right extension from Window/Door Width {m}
    @fixedShadingDepth@;     !- Depth {m}

Shading:Overhang,
    Shade_SubSurface5,       !- Name
    Sub Surface 5,           !- Window or Door Name
    0.5,                     !- Height above Window or Door {m}
    90,                      !- Tilt Angle from Window/Door {deg}
    0.5,                     !- Left extension from Window/Door Width {m}
    0.5,                     !- Right extension from Window/Door Width {m}
    @fixedShadingDepth@;     !- Depth {m}

Shading:Overhang,
    Shade_SubSurface6,       !- Name
    Sub Surface 6,           !- Window or Door Name
    0.5,                     !- Height above Window or Door {m}
    90,                      !- Tilt Angle from Window/Door {deg}
    0.5,                     !- Left extension from Window/Door Width {m}
    0.5,                     !- Right extension from Window/Door Width {m}
    @fixedShadingDepth@;     !- Depth {m}

Shading:Overhang,
    Shade_SubSurface1,       !- Name
    Sub Surface 1,           !- Window or Door Name
    0.5,                     !- Height above Window or Door {m}
    90,                      !- Tilt Angle from Window/Door {deg}
    0.5,                     !- Left extension from Window/Door Width {m}
    0.5,                     !- Right extension from Window/Door Width {m}
    @fixedShadingDepth@;     !- Depth {m}

Shading:Overhang,
    Shade_SubSurface3,       !- Name
    Sub Surface 3,           !- Window or Door Name
    0.5,                     !- Height above Window or Door {m}
    90,                      !- Tilt Angle from Window/Door {deg}
    0.5,                     !- Left extension from Window/Door Width {m}
    0.5,                     !- Right extension from Window/Door Width {m}
    @fixedShadingDepth@;     !- Depth {m}

Shading:Overhang,
    Shade_SubSurface10,      !- Name
    Sub Surface 10,          !- Window or Door Name
    0.5,                     !- Height above Window or Door {m}
    90,                      !- Tilt Angle from Window/Door {deg}
    0.5,                     !- Left extension from Window/Door Width {m}
    0.5,                     !- Right extension from Window/Door Width {m}
    @fixedShadingDepth@;     !- Depth {m}

Shading:Overhang,
    Shade_SubSurface11,      !- Name
    Sub Surface 11,          !- Window or Door Name
    0.5,                     !- Height above Window or Door {m}
    90,                      !- Tilt Angle from Window/Door {deg}
    0.5,                     !- Left extension from Window/Door Width {m}
    0.5,                     !- Right extension from Window/Door Width {m}
    @fixedShadingDepth@;     !- Depth {m}

Shading:Overhang,
    Shade_SubSurface9,       !- Name
    Sub Surface 9,           !- Window or Door Name
    0.5,                     !- Height above Window or Door {m}
    90,                      !- Tilt Angle from Window/Door {deg}
    0.5,                     !- Left extension from Window/Door Width {m}
    0.5,                     !- Right extension from Window/Door Width {m}
    @fixedShadingDepth@;     !- Depth {m}

Shading:Overhang,
    Shade_SubSurface16,      !- Name
    Sub Surface 16,          !- Window or Door Name
    0.5,                     !- Height above Window or Door {m}
    90,                      !- Tilt Angle from Window/Door {deg}
    0.5,                     !- Left extension from Window/Door Width {m}
    0.5,                     !- Right extension from Window/Door Width {m}
    @fixedShadingDepth@;     !- Depth {m}

Shading:Overhang,
    Shade_SubSurface12,      !- Name
    Sub Surface 12,          !- Window or Door Name
    0.5,                     !- Height above Window or Door {m}
    90,                      !- Tilt Angle from Window/Door {deg}
    0.5,                     !- Left extension from Window/Door Width {m}
    0.5,                     !- Right extension from Window/Door Width {m}
    @fixedShadingDepth@;     !- Depth {m}

Shading:Overhang,
    Shade_SubSurface13,      !- Name
    Sub Surface 13,          !- Window or Door Name
    0.5,                     !- Height above Window or Door {m}
    90,                      !- Tilt Angle from Window/Door {deg}
    0.5,                     !- Left extension from Window/Door Width {m}
    0.5,                     !- Right extension from Window/Door Width {m}
    @fixedShadingDepth@;     !- Depth {m}

Shading:Overhang,
    Shade_SubSurface14,      !- Name
    Sub Surface 14,          !- Window or Door Name
    0.5,                     !- Height above Window or Door {m}
    90,                      !- Tilt Angle from Window/Door {deg}
    0.5,                     !- Left extension from Window/Door Width {m}
    0.5,                     !- Right extension from Window/Door Width {m}
    @fixedShadingDepth@;     !- Depth {m}


!-   ===========  ALL OBJECTS IN CLASS: ZONEVENTILATION:WINDANDSTACKOPENAREA ===========

ZoneVentilation:WindandStackOpenArea,
    NatVent_101_S,           !- Name
    Thermal Zone: Space 101, !- Zone or Space Name
    @windowOpeningArea_S_101@,   !- Opening Area {m2}
    ,                        !- Opening Area Fraction Schedule Name
    autocalculate,           !- Opening Effectiveness {dimensionless}
    180,                     !- Effective Angle {deg}
    1,                       !- Height Difference {m}
    autocalculate,           !- Discharge Coefficient for Opening
    24,                      !- Minimum Indoor Temperature {C}
    ,                        !- Minimum Indoor Temperature Schedule Name
    100,                     !- Maximum Indoor Temperature {C}
    ,                        !- Maximum Indoor Temperature Schedule Name
    -100,                    !- Delta Temperature {deltaC}
    ,                        !- Delta Temperature Schedule Name
    10,                      !- Minimum Outdoor Temperature {C}
    ,                        !- Minimum Outdoor Temperature Schedule Name
    100,                     !- Maximum Outdoor Temperature {C}
    ,                        !- Maximum Outdoor Temperature Schedule Name
    10;                      !- Maximum Wind Speed {m/s}

ZoneVentilation:WindandStackOpenArea,
    NatVent_101_N,           !- Name
    Thermal Zone: Space 101, !- Zone or Space Name
    @windowOpeningArea_N@,   !- Opening Area {m2}
    ,                        !- Opening Area Fraction Schedule Name
    autocalculate,           !- Opening Effectiveness {dimensionless}
    0,                       !- Effective Angle {deg}
    1,                       !- Height Difference {m}
    autocalculate,           !- Discharge Coefficient for Opening
    24,                      !- Minimum Indoor Temperature {C}
    ,                        !- Minimum Indoor Temperature Schedule Name
    100,                     !- Maximum Indoor Temperature {C}
    ,                        !- Maximum Indoor Temperature Schedule Name
    -100,                    !- Delta Temperature {deltaC}
    ,                        !- Delta Temperature Schedule Name
    10,                      !- Minimum Outdoor Temperature {C}
    ,                        !- Minimum Outdoor Temperature Schedule Name
    100,                     !- Maximum Outdoor Temperature {C}
    ,                        !- Maximum Outdoor Temperature Schedule Name
    10;                      !- Maximum Wind Speed {m/s}

ZoneVentilation:WindandStackOpenArea,
    NatVent_101_W,           !- Name
    Thermal Zone: Space 101, !- Zone or Space Name
    @windowOpeningArea_W@,   !- Opening Area {m2}
    ,                        !- Opening Area Fraction Schedule Name
    autocalculate,           !- Opening Effectiveness {dimensionless}
    270,                     !- Effective Angle {deg}
    1,                       !- Height Difference {m}
    autocalculate,           !- Discharge Coefficient for Opening
    24,                      !- Minimum Indoor Temperature {C}
    ,                        !- Minimum Indoor Temperature Schedule Name
    100,                     !- Maximum Indoor Temperature {C}
    ,                        !- Maximum Indoor Temperature Schedule Name
    -100,                    !- Delta Temperature {deltaC}
    ,                        !- Delta Temperature Schedule Name
    10,                      !- Minimum Outdoor Temperature {C}
    ,                        !- Minimum Outdoor Temperature Schedule Name
    100,                     !- Maximum Outdoor Temperature {C}
    ,                        !- Maximum Outdoor Temperature Schedule Name
    10;                      !- Maximum Wind Speed {m/s}

ZoneVentilation:WindandStackOpenArea,
    NatVent_102_S,           !- Name
    Thermal Zone: Space 102, !- Zone or Space Name
    @windowOpeningArea_S_102@,   !- Opening Area {m2}
    ,                        !- Opening Area Fraction Schedule Name
    autocalculate,           !- Opening Effectiveness {dimensionless}
    180,                     !- Effective Angle {deg}
    1,                       !- Height Difference {m}
    autocalculate,           !- Discharge Coefficient for Opening
    24,                      !- Minimum Indoor Temperature {C}
    ,                        !- Minimum Indoor Temperature Schedule Name
    100,                     !- Maximum Indoor Temperature {C}
    ,                        !- Maximum Indoor Temperature Schedule Name
    -100,                    !- Delta Temperature {deltaC}
    ,                        !- Delta Temperature Schedule Name
    10,                      !- Minimum Outdoor Temperature {C}
    ,                        !- Minimum Outdoor Temperature Schedule Name
    100,                     !- Maximum Outdoor Temperature {C}
    ,                        !- Maximum Outdoor Temperature Schedule Name
    10;                      !- Maximum Wind Speed {m/s}

ZoneVentilation:WindandStackOpenArea,
    NatVent_102_N,           !- Name
    Thermal Zone: Space 102, !- Zone or Space Name
    @windowOpeningArea_N@,   !- Opening Area {m2}
    ,                        !- Opening Area Fraction Schedule Name
    autocalculate,           !- Opening Effectiveness {dimensionless}
    0,                       !- Effective Angle {deg}
    1,                       !- Height Difference {m}
    autocalculate,           !- Discharge Coefficient for Opening
    24,                      !- Minimum Indoor Temperature {C}
    ,                        !- Minimum Indoor Temperature Schedule Name
    100,                     !- Maximum Indoor Temperature {C}
    ,                        !- Maximum Indoor Temperature Schedule Name
    -100,                    !- Delta Temperature {deltaC}
    ,                        !- Delta Temperature Schedule Name
    10,                      !- Minimum Outdoor Temperature {C}
    ,                        !- Minimum Outdoor Temperature Schedule Name
    100,                     !- Maximum Outdoor Temperature {C}
    ,                        !- Maximum Outdoor Temperature Schedule Name
    10;                      !- Maximum Wind Speed {m/s}

ZoneVentilation:WindandStackOpenArea,
    NatVent_102_W,           !- Name
    Thermal Zone: Space 102, !- Zone or Space Name
    @windowOpeningArea_W@,   !- Opening Area {m2}
    ,                        !- Opening Area Fraction Schedule Name
    autocalculate,           !- Opening Effectiveness {dimensionless}
    270,                     !- Effective Angle {deg}
    1,                       !- Height Difference {m}
    autocalculate,           !- Discharge Coefficient for Opening
    24,                      !- Minimum Indoor Temperature {C}
    ,                        !- Minimum Indoor Temperature Schedule Name
    100,                     !- Maximum Indoor Temperature {C}
    ,                        !- Maximum Indoor Temperature Schedule Name
    -100,                    !- Delta Temperature {deltaC}
    ,                        !- Delta Temperature Schedule Name
    10,                      !- Minimum Outdoor Temperature {C}
    ,                        !- Minimum Outdoor Temperature Schedule Name
    100,                     !- Maximum Outdoor Temperature {C}
    ,                        !- Maximum Outdoor Temperature Schedule Name
    10;                      !- Maximum Wind Speed {m/s}


!-   ===========  ALL OBJECTS IN CLASS: OUTPUT:VARIABLEDICTIONARY ===========

Output:VariableDictionary,
    IDF,                     !- Key Field
    Unsorted;                !- Sort Option


!-   ===========  ALL OBJECTS IN CLASS: OUTPUT:VARIABLE ===========

Output:Variable,
    *,                       !- Key Value
    Site Outdoor Air Drybulb Temperature,  !- Variable Name
    Hourly;                  !- Reporting Frequency

Output:Variable,
    *,                       !- Key Value
    Zone Ideal Loads Supply Air Total Heating Energy,  !- Variable Name
    Hourly;                  !- Reporting Frequency

Output:Variable,
    *,                       !- Key Value
    Zone Ideal Loads Supply Air Total Cooling Energy,  !- Variable Name
    Hourly;                  !- Reporting Frequency

Output:Variable,
    *,                       !- Key Value
    Lights Electricity Energy,  !- Variable Name
    Hourly;                  !- Reporting Frequency

Output:Variable,
    *,                       !- Key Value
    Electric Equipment Electricity Energy,  !- Variable Name
    Hourly;                  !- Reporting Frequency

Output:Variable,
    *,                       !- Key Value
    Zone Air Temperature,    !- Variable Name
    Hourly;                  !- Reporting Frequency

Output:Variable,
    *,                       !- Key Value
    Zone Operative Temperature,  !- Variable Name
    Hourly;                  !- Reporting Frequency

Output:Variable,
    *,                       !- Key Value
    Zone Mean Radiant Temperature,  !- Variable Name
    Hourly;                  !- Reporting Frequency

Output:Variable,
    *,                       !- Key Value
    Zone Infiltration Current Density Volume Flow Rate,  !- Variable Name
    Hourly;                  !- Reporting Frequency

Output:Variable,
    *,                       !- Key Value
    Zone Windows Total Heat Gain Rate,  !- Variable Name
    Hourly;                  !- Reporting Frequency

Output:Variable,
    *,                       !- Key Value
    Zone Ventilation Current Density Volume Flow Rate,  !- Variable Name
    Hourly;                  !- Reporting Frequency

Output:Variable,
    *,                       !- Key Value
    Zone Cooling Setpoint Not Met Time,  !- Variable Name
    Hourly;                  !- Reporting Frequency

Output:Variable,
    *,                       !- Key Value
    Zone Heat Index,         !- Variable Name
    Hourly;                  !- Reporting Frequency

Output:Variable,
    *,                       !- Key Value
    Zone Thermal Comfort Pierce Model Standard Effective Temperature,  !- Variable Name
    Hourly;                  !- Reporting Frequency

Output:Variable,
    *,                       !- Key Value
    Zone Thermal Comfort ASHRAE 55 Adaptive Model 80% Acceptability Status,  !- Variable Name
    Hourly;                  !- Reporting Frequency


!-   ===========  ALL OBJECTS IN CLASS: OUTPUTCONTROL:FILES ===========

OutputControl:Files,
    Yes,                     !- Output CSV
    No,                      !- Output MTR
    No,                      !- Output ESO
    No,                      !- Output EIO
    Yes,                     !- Output Tabular
    No,                      !- Output SQLite
    No,                      !- Output JSON
    No,                      !- Output AUDIT
    No,                      !- Output Space Sizing
    No,                      !- Output Zone Sizing
    No,                      !- Output System Sizing
    No,                      !- Output DXF
    No,                      !- Output BND
    Yes,                     !- Output RDD
    Yes,                     !- Output MDD
    No,                      !- Output MTD
    No,                      !- Output END
    No,                      !- Output SHD
    No,                      !- Output DFS
    No,                      !- Output GLHE
    No,                      !- Output DelightIn
    No,                      !- Output DelightELdmp
    No,                      !- Output DelightDFdmp
    No,                      !- Output EDD
    No,                      !- Output DBG
    No,                      !- Output PerfLog
    No,                      !- Output SLN
    No,                      !- Output SCI
    No,                      !- Output WRL
    No,                      !- Output Screen
    No,                      !- Output ExtShd
    No;                      !- Output Tarcog


!-   ===========  ALL OBJECTS IN CLASS: OUTPUTCONTROL:TIMESTAMP ===========

OutputControl:Timestamp,
    Yes,                     !- ISO 8601 Format
    Yes;                     !- Timestamp at Beginning of Interval


!-   ===========  ALL OBJECTS IN CLASS: OUTPUT:DIAGNOSTICS ===========

Output:Diagnostics,
    DisplayAdvancedReportVariables,  !- Key 1
    DisplayExtraWarnings;    !- Key 2


!-   ===========  ALL OBJECTS IN CLASS: OUTPUT:TABLE:SUMMARYREPORTS ===========

Output:Table:SummaryReports,
    ThermalResilienceSummary;!- Report 1 Name


!-   ===========  ALL OBJECTS IN CLASS: OUTPUTCONTROL:TABLE:STYLE ===========

OutputControl:Table:Style,
    HTML;                    !- Column Separator


!-   ===========  ALL OBJECTS IN CLASS: OUTPUT:SQLITE ===========

Output:SQLite,
    SimpleAndTabular;        !- Option Type


!-   ===========  ALL OBJECTS IN CLASS: FOUNDATION:KIVA ===========

Foundation:Kiva,
    Foundation Kiva,         !- Name
    19,                      !- Initial Indoor Air Temperature {C}
    ,                        !- Interior Horizontal Insulation Material Name
    ,                        !- Interior Horizontal Insulation Depth {m}
    ,                        !- Interior Horizontal Insulation Width {m}
    ,                        !- Interior Vertical Insulation Material Name
    ,                        !- Interior Vertical Insulation Depth {m}
    ,                        !- Exterior Horizontal Insulation Material Name
    ,                        !- Exterior Horizontal Insulation Depth {m}
    ,                        !- Exterior Horizontal Insulation Width {m}
    ,                        !- Exterior Vertical Insulation Material Name
    ,                        !- Exterior Vertical Insulation Depth {m}
    0.0,                     !- Wall Height Above Grade {m}
    0;                       !- Wall Depth Below Slab {m}


!-   ===========  ALL OBJECTS IN CLASS: FOUNDATION:KIVA:SETTINGS ===========

Foundation:Kiva:Settings,
    0.864,                   !- Soil Conductivity {W/m-K}
    1510,                    !- Soil Density {kg/m3}
    1260,                    !- Soil Specific Heat {J/kg-K}
    0.8,                     !- Ground Solar Absorptivity {dimensionless}
    0.9,                     !- Ground Thermal Absorptivity {dimensionless}
    0.03,                    !- Ground Surface Roughness {m}
    25,                      !- Far-Field Width {m}
    ZeroFlux,                !- Deep-Ground Boundary Condition
    25,                      !- Deep-Ground Depth {m}
    0.03,                    !- Minimum Cell Dimension {m}
    1.66,                    !- Maximum Cell Growth Coefficient {dimensionless}
    Timestep;                !- Simulation Timestep


!-   ===========  ALL OBJECTS IN CLASS: SURFACEPROPERTY:EXPOSEDFOUNDATIONPERIMETER ===========

SurfaceProperty:ExposedFoundationPerimeter,
    Surface 1,               !- Surface Name
    ExposedPerimeterFraction,!- Exposed Perimeter Calculation Method
    ,                        !- Total Exposed Perimeter {m}
    0.75,                    !- Exposed Perimeter Fraction {dimensionless}
    Yes;                     !- Surface Segment 1 Exposed


!-   ===========  ALL OBJECTS IN CLASS: DAYLIGHTING:REFERENCEPOINT ===========

Daylighting:ReferencePoint,
    DaylightRefPt_Space101,  !- Name
    Thermal Zone: Space 101, !- Zone or Space Name
    @daylightReference_x@,   !- X-Coordinate of Reference Point {m}
    @daylightReference_y@,   !- Y-Coordinate of Reference Point {m}
    0.8;                     !- Z-Coordinate of Reference Point {m}

Daylighting:ReferencePoint,
    DaylightRefPt_Space102,  !- Name
    Thermal Zone: Space 102, !- Zone or Space Name
    @daylightReference_x@,   !- X-Coordinate of Reference Point {m}
    @daylightReference_y@,   !- Y-Coordinate of Reference Point {m}
    0.8;                     !- Z-Coordinate of Reference Point {m}


!-   ===========  ALL OBJECTS IN CLASS: DAYLIGHTING:CONTROLS ===========

Daylighting:Controls,
    DaylightCtrl_Space101,   !- Name
    Thermal Zone: Space 101, !- Zone or Space Name
    SplitFlux,               !- Daylighting Method
    Always On,               !- Availability Schedule Name
    Continuous,              !- Lighting Control Type
    0.3,                     !- Minimum Input Power Fraction for Continuous or ContinuousOff Dimming Control
    0.2,                     !- Minimum Light Output Fraction for Continuous or ContinuousOff Dimming Control
    1,                       !- Number of Stepped Control Steps
    1,                       !- Probability Lighting will be Reset When Needed in Manual Stepped Control
    DaylightRefPt_Space101,  !- Glare Calculation Daylighting Reference Point Name
    180,                     !- Glare Calculation Azimuth Angle of View Direction Clockwise from Zone y-Axis {deg}
    22,                      !- Maximum Allowable Discomfort Glare Index
    ,                        !- DElight Gridding Resolution {m2}
    DaylightRefPt_Space101,  !- Daylighting Reference Point 1 Name
    1,                       !- Fraction of Lights Controlled by Reference Point 1
    500;                     !- Illuminance Setpoint at Reference Point 1 {lux}

Daylighting:Controls,
    DaylightCtrl_Space102,   !- Name
    Thermal Zone: Space 102, !- Zone or Space Name
    SplitFlux,               !- Daylighting Method
    Always On,               !- Availability Schedule Name
    Continuous,              !- Lighting Control Type
    0.3,                     !- Minimum Input Power Fraction for Continuous or ContinuousOff Dimming Control
    0.2,                     !- Minimum Light Output Fraction for Continuous or ContinuousOff Dimming Control
    1,                       !- Number of Stepped Control Steps
    1,                       !- Probability Lighting will be Reset When Needed in Manual Stepped Control
    DaylightRefPt_Space102,  !- Glare Calculation Daylighting Reference Point Name
    180,                     !- Glare Calculation Azimuth Angle of View Direction Clockwise from Zone y-Axis {deg}
    22,                      !- Maximum Allowable Discomfort Glare Index
    ,                        !- DElight Gridding Resolution {m2}
    DaylightRefPt_Space102,  !- Daylighting Reference Point 1 Name
    1,                       !- Fraction of Lights Controlled by Reference Point 1
    500;                     !- Illuminance Setpoint at Reference Point 1 {lux}


!-   ===========  ALL OBJECTS IN CLASS: OUTPUT:TABLE:REPORTPERIOD ===========

Output:Table:ReportPeriod,
    Resilience,              !- Name,
    ,                        !- Report Name,
    ,                        !- Begin Year
    1,                       !- Begin Month
    1,                       !- Begin Day of Month
    1,                       !- Begin Hour of Day
    ,                        !- End Year
    12,                      !- End Month
    31,                      !- End Day of Month
    24;                      !- End Hour of Day


!-   ===========  ALL OBJECTS IN CLASS: OUTPUTCONTROL:RESILIENCESUMMARIES ===========

OutputControl:ResilienceSummaries,
    Extended;                !- Heat Index Algorithm


!-   ===========  ALL OBJECTS IN CLASS: OUTPUT:DEBUGGINGDATA ===========

Output:DebuggingData,
    Yes,                     !- Report Debugging Data
    No;                      !- Report During Warmup

